NAME          KB2_RESC
ROWS
 N  FAT7..J.
 E  BAL...BW
 E  BHC...BW
 E  BLC...BW
 E  BLV...BW
 E  BN4...BW
 E  BP8...BW
 E  BTO...BW
 E  B3E...BW
 E  B3P...BW
 E  B3R...BW
 E  B3T...BW
 E  B3E.VOBW
 E  B3P.VOBW
 E  B3R.VOBW
 G  HMH.3EBW
 G  HML.3EBW
 G  HMM.3EBW
 G  HRH.3EBW
 G  HRL.3EBW
 G  HRM.3EBW
 G  HMH.3RBW
 G  HML.3RBW
 G  HMM.3RBW
 G  HRH.3RBW
 G  HRL.3RBW
 G  HRM.3RBW
 G  NOI.3EBW
 G  NOI.3PBW
 G  NOI.3RBW
 E  WMO.3PBW
 E  WRO.3PBW
 L  XPB.3ABW
 L  XCV.3EBW
 L  XPB.3EBW
 L  XRV.3EBW
 L  X12.3EBW
 L  XCV.3PBW
 L  XRV.3PBW
 L  X12.3PBW
 L  XCV.3RBW
 L  XPB.3RBW
 L  XRV.3RBW
 L  X12.3RBW
COLUMNS
    BAL.3EBW  BAL...BW  -261.71746793
    BAL.3EBW  B3E.VOBW  0.419196086487
    BAL.3EBW  XCV.3EBW  1486.92699953
    BAL.3EBW  XRV.3EBW  0.0930157323025
    BAL.3EBW  X12.3EBW  10957.5190256
    BAL.3EBW  HRL.3EBW  0.660664440392
    BAL.3EBW  HML.3EBW  8.9930237318
    BAL.3EBW  HRM.3EBW  263.814843532
    BAL.3EBW  HMM.3EBW  36704.3015557
    BAL.3EBW  HRH.3EBW  22219.615251
    BAL.3EBW  HMH.3EBW  45799.7025153
    BHC.3EBW  BHC...BW  -0.173322791989
    BHC.3EBW  B3E.VOBW  0.108096467658
    BHC.3EBW  XCV.3EBW  -127.809364555
    BHC.3EBW  XRV.3EBW  0.00299820072951
    BHC.3EBW  X12.3EBW  -876.320819287
    BHC.3EBW  HRL.3EBW  0.16033925056
    BHC.3EBW  HML.3EBW  1.94578488299
    BHC.3EBW  HRM.3EBW  63.0605517445
    BHC.3EBW  HMM.3EBW  7861.14435576
    BHC.3EBW  HRH.3EBW  5282.88506257
    BHC.3EBW  HMH.3EBW  9769.00461928
    BLC.3EBW  BLC...BW  -7.61800320299
    BLC.3EBW  B3E.VOBW  0.00771436280352
    BLC.3EBW  XCV.3EBW  31.9241451854
    BLC.3EBW  XRV.3EBW  0.00192571393106
    BLC.3EBW  X12.3EBW  232.116306993
    BLC.3EBW  HRL.3EBW  0.0117491773118
    BLC.3EBW  HML.3EBW  0.140564228269
    BLC.3EBW  HRM.3EBW  4.66256072937
    BLC.3EBW  HMM.3EBW  573.066736747
    BLC.3EBW  HRH.3EBW  391.397655487
    BLC.3EBW  HMH.3EBW  713.745904098
    BLV.3EBW  BLV...BW  -6.5031849055e-05
    BLV.3EBW  B3E.VOBW  0.0155249818874
    BLV.3EBW  XCV.3EBW  128.493250421
    BLV.3EBW  XRV.3EBW  0.00620072965954
    BLV.3EBW  X12.3EBW  825.341655355
    BLV.3EBW  HRL.3EBW  0.0205453547315
    BLV.3EBW  HML.3EBW  0.282844202549
    BLV.3EBW  HRM.3EBW  8.36369023883
    BLV.3EBW  HMM.3EBW  1171.28353637
    BLV.3EBW  HRH.3EBW  706.39117653
    BLV.3EBW  HMH.3EBW  1464.10419893
    BN4.3EBW  BN4...BW  -2625.30315166
    BN4.3EBW  B3E.VOBW  434.475819444
    BN4.3EBW  XCV.3EBW  20548341.5327
    BN4.3EBW  XRV.3EBW  1687.10786379
    BN4.3EBW  X12.3EBW  25513561.2784
    BN4.3EBW  HRL.3EBW  675.22191207
    BN4.3EBW  HML.3EBW  9131.74193287
    BN4.3EBW  HRM.3EBW  269754.034155
    BN4.3EBW  HMM.3EBW  37567673.9067
    BN4.3EBW  HRH.3EBW  22717817.8415
    BN4.3EBW  HMH.3EBW  46932483.1626
    BP8.3EBW  BP8...BW  -36.6655172478
    BP8.3EBW  B3E.VOBW  147.319234269
    BP8.3EBW  XCV.3EBW  348369.898233
    BP8.3EBW  XRV.3EBW  29.4198972975
    BP8.3EBW  X12.3EBW  2212505.32386
    BP8.3EBW  HRL.3EBW  237.990071049
    BP8.3EBW  HML.3EBW  3006.91414133
    BP8.3EBW  HRM.3EBW  92887.4034491
    BP8.3EBW  HMM.3EBW  12001763.5358
    BP8.3EBW  HRH.3EBW  7767790.8572
    BP8.3EBW  HMH.3EBW  14868837.929
    BTO.3EBW  BTO...BW  -12.7396706048
    BTO.3EBW  B3E.VOBW  0.143440602321
    BTO.3EBW  XCV.3EBW  -84.7994972981
    BTO.3EBW  XRV.3EBW  0.00954844267179
    BTO.3EBW  X12.3EBW  372.708359218
    BTO.3EBW  HRL.3EBW  0.2415810368
    BTO.3EBW  HML.3EBW  2.89737343102
    BTO.3EBW  HRM.3EBW  93.9860943557
    BTO.3EBW  HMM.3EBW  11542.7279617
    BTO.3EBW  HRH.3EBW  7854.61812849
    BTO.3EBW  HMH.3EBW  14298.8046185
    BAL.3PBW  BAL...BW  -12450.1932416
    BAL.3PBW  B3P.VOBW  10.4668771094
    BAL.3PBW  XCV.3PBW  146.333047384
    BAL.3PBW  XRV.3PBW  1240.80815671
    BAL.3PBW  X12.3PBW  987.73605444
    BAL.3PBW  WRO.3PBW  3566.5271346
    BAL.3PBW  WMO.3PBW  55.3452156134
    BHC.3PBW  BHC...BW  -0.002088206965
    BHC.3PBW  B3P.VOBW  0.000683574556655
    BHC.3PBW  XCV.3PBW  -0.00318559034512
    BHC.3PBW  XRV.3PBW  0.0101293929024
    BHC.3PBW  X12.3PBW  -0.0200062773083
    BHC.3PBW  WRO.3PBW  0.220472437844
    BHC.3PBW  WMO.3PBW  0.00306927505638
    BLC.3PBW  BLC...BW  -222743.706272
    BLC.3PBW  B3P.VOBW  118.391595626
    BLC.3PBW  XCV.3PBW  1931.04749299
    BLC.3PBW  XRV.3PBW  15789.2285354
    BLC.3PBW  X12.3PBW  12860.4224241
    BLC.3PBW  WRO.3PBW  39426.9102661
    BLC.3PBW  WMO.3PBW  549.658550208
    BLV.3PBW  BLV...BW  -0.00510553491652
    BLV.3PBW  B3P.VOBW  0.63973892122
    BLV.3PBW  XCV.3PBW  20.8691543256
    BLV.3PBW  XRV.3PBW  136.509474027
    BLV.3PBW  X12.3PBW  122.781858786
    BLV.3PBW  WRO.3PBW  180.901122381
    BLV.3PBW  WMO.3PBW  2.84609464645
    BN4.3PBW  BN4...BW  -367.910186981
    BN4.3PBW  B3P.VOBW  31.9583602107
    BN4.3PBW  XCV.3PBW  5957.28689676
    BN4.3PBW  XRV.3PBW  66299.4690944
    BN4.3PBW  X12.3PBW  6775.14707692
    BN4.3PBW  WRO.3PBW  10660.2519445
    BN4.3PBW  WMO.3PBW  162.353511824
    BP8.3PBW  BP8...BW  -0.00821389319912
    BP8.3PBW  B3P.VOBW  0.0173223660521
    BP8.3PBW  XCV.3PBW  0.161451187768
    BP8.3PBW  XRV.3PBW  1.84815008141
    BP8.3PBW  X12.3PBW  0.939205984108
    BP8.3PBW  WRO.3PBW  6.12943400372
    BP8.3PBW  WMO.3PBW  0.0882253772018
    BTO.3PBW  BTO...BW  -11.6990371749
    BTO.3PBW  B3P.VOBW  0.0691385943107
    BTO.3PBW  XCV.3PBW  -0.16109964624
    BTO.3PBW  XRV.3PBW  2.45883459415
    BTO.3PBW  X12.3PBW  0.648554304711
    BTO.3PBW  WRO.3PBW  25.7493747712
    BTO.3PBW  WMO.3PBW  0.350549307333
    BAL.3RBW  BAL...BW  -55.7954708529
    BAL.3RBW  B3R.VOBW  6.63655378982
    BAL.3RBW  XCV.3RBW  0.0147330859479
    BAL.3RBW  XRV.3RBW  20.6112914003
    BAL.3RBW  X12.3RBW  0.086012452314
    BAL.3RBW  HRL.3RBW  11.8015079701
    BAL.3RBW  HML.3RBW  5291.60951612
    BAL.3RBW  HRM.3RBW  11.3418283303
    BAL.3RBW  HMM.3RBW  117.346863194
    BAL.3RBW  HRH.3RBW  0.079747848957
    BAL.3RBW  HMH.3RBW  206.015249186
    BHC.3RBW  BHC...BW  -799.104034177
    BHC.3RBW  B3R.VOBW  37009.9340782
    BHC.3RBW  XCV.3RBW  -27.3872332422
    BHC.3RBW  XRV.3RBW  14367.8210136
    BHC.3RBW  X12.3RBW  -148.762557537
    BHC.3RBW  HRL.3RBW  61812.8630115
    BHC.3RBW  HML.3RBW  24721487.5931
    BHC.3RBW  HRM.3RBW  58906.9692112
    BHC.3RBW  HMM.3RBW  545441.564974
    BHC.3RBW  HRH.3RBW  410.048299332
    BHC.3RBW  HMH.3RBW  950316.862779
    BLC.3RBW  BLC...BW  -271.782526651
    BLC.3RBW  B3R.VOBW  20.4380568482
    BLC.3RBW  XCV.3RBW  0.0529343392123
    BLC.3RBW  XRV.3RBW  71.4092891481
    BLC.3RBW  X12.3RBW  0.304908051625
    BLC.3RBW  HRL.3RBW  35.1050365609
    BLC.3RBW  HML.3RBW  13840.3774235
    BLC.3RBW  HRM.3RBW  33.6339448614
    BLC.3RBW  HMM.3RBW  307.010940714
    BLC.3RBW  HRH.3RBW  0.235079526259
    BLC.3RBW  HMH.3RBW  537.272341238
    BLV.3RBW  BLV...BW  -0.0030420936991
    BLV.3RBW  B3R.VOBW  53.9307858278
    BLV.3RBW  XCV.3RBW  0.279360267191
    BLV.3RBW  XRV.3RBW  301.489254699
    BLV.3RBW  X12.3RBW  1.42155317104
    BLV.3RBW  HRL.3RBW  80.8425004034
    BLV.3RBW  HML.3RBW  36615.8037677
    BLV.3RBW  HRM.3RBW  78.6339566572
    BLV.3RBW  HMM.3RBW  819.798674176
    BLV.3RBW  HRH.3RBW  0.55629858599
    BLV.3RBW  HMH.3RBW  1445.07019613
    BN4.3RBW  BN4...BW  -2398.88026753
    BN4.3RBW  B3R.VOBW  29481.7925123
    BN4.3RBW  XCV.3RBW  872.657299228
    BN4.3RBW  XRV.3RBW  1602339.42571
    BN4.3RBW  X12.3RBW  858.386848584
    BN4.3RBW  HRL.3RBW  51727.7107333
    BN4.3RBW  HML.3RBW  23074051.0474
    BN4.3RBW  HRM.3RBW  49730.8468681
    BN4.3RBW  HMM.3RBW  514617.172552
    BN4.3RBW  HRH.3RBW  349.471634479
    BN4.3RBW  HMH.3RBW  904842.766645
    BP8.3RBW  BP8...BW  -47.6533060764
    BP8.3RBW  B3R.VOBW  14218.5017367
    BP8.3RBW  XCV.3RBW  21.0432919224
    BP8.3RBW  XRV.3RBW  39742.842847
    BP8.3RBW  X12.3RBW  105.877189484
    BP8.3RBW  HRL.3RBW  25829.3271969
    BP8.3RBW  HML.3RBW  10747766.2274
    BP8.3RBW  HRM.3RBW  24503.4187894
    BP8.3RBW  HMM.3RBW  235438.959853
    BP8.3RBW  HRH.3RBW  169.960871912
    BP8.3RBW  HMH.3RBW  407739.439675
    BTO.3RBW  BTO...BW  -15.1869409204
    BTO.3RBW  B3R.VOBW  12.6982351971
    BTO.3RBW  XCV.3RBW  -0.00469832678398
    BTO.3RBW  XRV.3RBW  11.8311566909
    BTO.3RBW  X12.3RBW  0.0163592766753
    BTO.3RBW  HRL.3RBW  24.0362347129
    BTO.3RBW  HML.3RBW  9495.58933208
    BTO.3RBW  HRM.3RBW  22.7559889923
    BTO.3RBW  HMM.3RBW  207.733020903
    BTO.3RBW  HRH.3RBW  0.157635266787
    BTO.3RBW  HMH.3RBW  359.651859541
    D3T...BW  B3T...BW  -18.0899762495
    D3T...BW  FAT7..J.  -1.15247486555
    EAL...BW  BAL...BW  31668.263526
    EHC...BW  BHC...BW  0.00516172491778
    ELC...BW  BLC...BW  162.403624086
    ELV...BW  BLV...BW  0.554139420847
    EN4...BW  BN4...BW  1412.50333201
    EN4...BW  FAT7..J.  3846.23428705
    EP8...BW  BP8...BW  0.00456853670204
    ETO...BW  BTO...BW  0.192188830918
    ETO...BW  FAT7..J.  0.0474723669218
    M3..3TBW  B3T...BW  13792.8962367
    M3..3TBW  B3E...BW  -0.172159061109
    M3..3TBW  B3P...BW  -1536.82903601
    M3..3TBW  B3R...BW  -52.7724376136
    QPB73EBW  FAT7..J.  0.471003074568
    QPB73EBW  XPB.3EBW  16.7017968253
    QPB73EBW  HRL.3EBW  0.157932250027
    QPB73EBW  HML.3EBW  3.04939322044
    QPB73EBW  HRM.3EBW  37.4956498657
    QPB73EBW  HMM.3EBW  5453.7653959
    QPB73EBW  HRH.3EBW  2565.14749496
    QPB73EBW  HMH.3EBW  5351.23901154
    QPB73EBW  XPB.3ABW  37.8175975795
    QVO73EBW  B3E...BW  0.000296616839155
    QVO73EBW  B3E.VOBW  -0.0194066265568
    QVO73EBW  XCV.3EBW  -183.565562289
    QVO73EBW  XRV.3EBW  -0.0129184525254
    QVO73EBW  X12.3EBW  -615.186664469
    QVO73EBW  NOI.3EBW  -2.86995639013
    QVO73EBW  XPB.3EBW  -0.140466457873
    QVO73EBW  HRL.3EBW  -0.000312529103529
    QVO73EBW  HML.3EBW  -0.00603438898387
    QVO73EBW  HRM.3EBW  -0.241148363805
    QVO73EBW  HMM.3EBW  -35.0753343139
    QVO73EBW  HRH.3EBW  -21.5734881322
    QVO73EBW  HMH.3EBW  -45.0052272163
    QVO73EBW  XPB.3ABW  -0.280637503688
    QVO73PBW  B3P...BW  184.149612954
    QVO73PBW  B3P.VOBW  -0.415275998987
    QVO73PBW  XCV.3PBW  -15.4821351971
    QVO73PBW  XRV.3PBW  -147.688133178
    QVO73PBW  X12.3PBW  -47.5250369428
    QVO73PBW  NOI.3PBW  -59628.8488507
    QVO73PBW  XPB.3ABW  -11.4413156701
    QPB73RBW  FAT7..J.  0.000234890083431
    QPB73RBW  XPB.3RBW  0.0383549658777
    QPB73RBW  HRL.3RBW  0.0112498672586
    QPB73RBW  HML.3RBW  5.37809999345
    QPB73RBW  HRM.3RBW  0.00645181336957
    QPB73RBW  HMM.3RBW  0.0726181576111
    QPB73RBW  HRH.3RBW  2.78459412468e-05
    QPB73RBW  HMH.3RBW  0.0795802567695
    QPB73RBW  XPB.3ABW  0.0188597041723
    QVO73RBW  B3R...BW  29.1187231757
    QVO73RBW  B3R.VOBW  -859.417570423
    QVO73RBW  XCV.3RBW  -5.08773010055
    QVO73RBW  XRV.3RBW  -8007.33628004
    QVO73RBW  X12.3RBW  -13.5078052242
    QVO73RBW  NOI.3RBW  -196.600470376
    QVO73RBW  XPB.3RBW  -385.731505919
    QVO73RBW  HRL.3RBW  -33.2761442697
    QVO73RBW  HML.3RBW  -15907.9585438
    QVO73RBW  HRM.3RBW  -38.1677348759
    QVO73RBW  HMM.3RBW  -429.59559245
    QVO73RBW  HRH.3RBW  -0.280042745469
    QVO73RBW  HMH.3RBW  -800.330618183
    QVO73RBW  XPB.3ABW  -167.355783744
    WMO73EBW  NOI.3EBW  1.05933356227
    WMO73EBW  HML.3EBW  -0.23917043406
    WMO73EBW  HMM.3EBW  -941.781058964
    WMO73EBW  HMH.3EBW  -1162.17287648
    WRO73EBW  NOI.3EBW  6.95069416113
    WRO73EBW  HRL.3EBW  -0.196807978805
    WRO73EBW  HRM.3EBW  -76.0320828219
    WRO73EBW  HRH.3EBW  -6339.36143073
    WMO73PBW  WMO.3PBW  -7.44120242159e-05
    WMO73PBW  NOI.3PBW  1.60246753881
    WRO73PBW  WRO.3PBW  -10.0325689482
    WRO73PBW  NOI.3PBW  1126.54260385
    WMO73RBW  NOI.3RBW  0.0169873140843
    WMO73RBW  HML.3RBW  -75.6549543655
    WMO73RBW  HMM.3RBW  -1.64421952328
    WMO73RBW  HMH.3RBW  -2.82620572796
    WRO73RBW  NOI.3RBW  0.0386222427112
    WRO73RBW  HRL.3RBW  -0.961738470648
    WRO73RBW  HRM.3RBW  -0.906922966057
    WRO73RBW  HRH.3RBW  -0.00625498004718
RHS
BOUNDS
  UP  77BOUND  BHC.3EBW  67.4698338372
  UP  77BOUND  D3T...BW  2863.40301091
  UP  77BOUND  EAL...BW  0.143784603183
  UP  77BOUND  EHC...BW  4531.06671198
  UP  77BOUND  ELC...BW  110.868079989
  UP  77BOUND  ELV...BW  0.0661573868894
  UP  77BOUND  EN4...BW  0.311993474771
  UP  77BOUND  EP8...BW  1390.62627991
  UP  77BOUND  ETO...BW  1685.19088445
ENDATA
