NAME          KB2_RESC
ROWS
 N  FAT7..J.
 E  BAL...BW
 E  BHC...BW
 E  BLC...BW
 E  BLV...BW
 E  BN4...BW
 E  BP8...BW
 E  BTO...BW
 E  B3E...BW
 E  B3P...BW
 E  B3R...BW
 E  B3T...BW
 E  B3E.VOBW
 E  B3P.VOBW
 E  B3R.VOBW
 G  HMH.3EBW
 G  HML.3EBW
 G  HMM.3EBW
 G  HRH.3EBW
 G  HRL.3EBW
 G  HRM.3EBW
 G  HMH.3RBW
 G  HML.3RBW
 G  HMM.3RBW
 G  HRH.3RBW
 G  HRL.3RBW
 G  HRM.3RBW
 G  NOI.3EBW
 G  NOI.3PBW
 G  NOI.3RBW
 E  WMO.3PBW
 E  WRO.3PBW
 L  XPB.3ABW
 L  XCV.3EBW
 L  XPB.3EBW
 L  XRV.3EBW
 L  X12.3EBW
 L  XCV.3PBW
 L  XRV.3PBW
 L  X12.3PBW
 L  XCV.3RBW
 L  XPB.3RBW
 L  XRV.3RBW
 L  X12.3RBW
COLUMNS
    BAL.3EBW  BAL...BW  -68496.0330198
    BAL.3EBW  B3E.VOBW  0.175725358926
    BAL.3EBW  XCV.3EBW  368491.983654
    BAL.3EBW  XRV.3EBW  0.00216298161394
    BAL.3EBW  X12.3EBW  2387022.32996
    BAL.3EBW  HRL.3EBW  0.00442214035937
    BAL.3EBW  HML.3EBW  0.854587570361
    BAL.3EBW  HRM.3EBW  682.189459772
    BAL.3EBW  HMM.3EBW  13734417.8709
    BAL.3EBW  HRH.3EBW  4790611.33383
    BAL.3EBW  HMH.3EBW  21148361.8789
    BHC.3EBW  BHC...BW  -0.0300407902227
    BHC.3EBW  B3E.VOBW  0.0116848463201
    BHC.3EBW  XCV.3EBW  -8167.61683401
    BHC.3EBW  XRV.3EBW  1.79784152289e-05
    BHC.3EBW  X12.3EBW  -49226.8063024
    BHC.3EBW  HRL.3EBW  0.000276748785274
    BHC.3EBW  HML.3EBW  0.0476804055101
    BHC.3EBW  HRM.3EBW  42.0492086293
    BHC.3EBW  HMM.3EBW  758531.02141
    BHC.3EBW  HRH.3EBW  293710.753902
    BHC.3EBW  HMH.3EBW  1163211.46465
    BLC.3EBW  BLC...BW  -58.0339728007
    BLC.3EBW  B3E.VOBW  5.95113934643e-05
    BLC.3EBW  XCV.3EBW  145.593006546
    BLC.3EBW  XRV.3EBW  8.24083143175e-07
    BLC.3EBW  X12.3EBW  930.535059965
    BLC.3EBW  HRL.3EBW  1.44724443816e-06
    BLC.3EBW  HML.3EBW  0.000245815059145
    BLC.3EBW  HRM.3EBW  0.221877426129
    BLC.3EBW  HMM.3EBW  3946.22036469
    BLC.3EBW  HRH.3EBW  1552.94281289
    BLC.3EBW  HMH.3EBW  6065.13602349
    BLV.3EBW  BLV...BW  -4.22914139152e-09
    BLV.3EBW  B3E.VOBW  0.000241025062606
    BLV.3EBW  XCV.3EBW  1179.32252884
    BLV.3EBW  XRV.3EBW  5.34014559871e-06
    BLV.3EBW  X12.3EBW  6658.73751773
    BLV.3EBW  HRL.3EBW  5.09306381468e-06
    BLV.3EBW  HML.3EBW  0.000995432913762
    BLV.3EBW  HRM.3EBW  0.800972489558
    BLV.3EBW  HMM.3EBW  16231.8945963
    BLV.3EBW  HRH.3EBW  5640.44737442
    BLV.3EBW  HMH.3EBW  25038.0178596
    BN4.3EBW  BN4...BW  -6892216.63809
    BN4.3EBW  B3E.VOBW  188769.237682
    BN4.3EBW  XCV.3EBW  5.27792924682e+12
    BN4.3EBW  XRV.3EBW  40661.8992011
    BN4.3EBW  X12.3EBW  5.76054698323e+12
    BN4.3EBW  HRL.3EBW  4684.31951005
    BN4.3EBW  HML.3EBW  899399.938442
    BN4.3EBW  HRM.3EBW  722973064.508
    BN4.3EBW  HMM.3EBW  1.45698804864e+13
    BN4.3EBW  HRH.3EBW  5.07655864378e+12
    BN4.3EBW  HMH.3EBW  2.24613575171e+13
    BP8.3EBW  BP8...BW  -1344.36015505
    BP8.3EBW  B3E.VOBW  21702.9567855
    BP8.3EBW  XCV.3EBW  30340396498.7
    BP8.3EBW  XRV.3EBW  240.425099166
    BP8.3EBW  X12.3EBW  169383384363
    BP8.3EBW  HRL.3EBW  559.825482426
    BP8.3EBW  HML.3EBW  100418.584033
    BP8.3EBW  HRM.3EBW  84412125.0709
    BP8.3EBW  HMM.3EBW  1.57826742007e+12
    BP8.3EBW  HRH.3EBW  588564631182
    BP8.3EBW  HMH.3EBW  2.41286674037e+12
    BTO.3EBW  BTO...BW  -162.299207118
    BTO.3EBW  B3E.VOBW  0.0205752063943
    BTO.3EBW  XCV.3EBW  -7190.954742
    BTO.3EBW  XRV.3EBW  7.59772978803e-05
    BTO.3EBW  X12.3EBW  27782.3042061
    BTO.3EBW  HRL.3EBW  0.000553311010621
    BTO.3EBW  HML.3EBW  0.0942128596994
    BTO.3EBW  HRM.3EBW  83.1618727638
    BTO.3EBW  HMM.3EBW  1477939.42174
    BTO.3EBW  HRH.3EBW  579474.539944
    BTO.3EBW  HMH.3EBW  2259272.87758
    BAL.3PBW  BAL...BW  -155007311.754
    BAL.3PBW  B3P.VOBW  109.555516423
    BAL.3PBW  XCV.3PBW  3568.89345945
    BAL.3PBW  XRV.3PBW  384901.220439
    BAL.3PBW  X12.3PBW  19396.0738219
    BAL.3PBW  WRO.3PBW  132314.367356
    BAL.3PBW  WMO.3PBW  33.3078364263
    BHC.3PBW  BHC...BW  -4.36060832868e-06
    BHC.3PBW  B3P.VOBW  4.67274174506e-07
    BHC.3PBW  XCV.3PBW  -5.07399292346e-06
    BHC.3PBW  XRV.3PBW  0.000205209201142
    BHC.3PBW  X12.3PBW  -2.56571238292e-05
    BHC.3PBW  WRO.3PBW  0.000534176207784
    BHC.3PBW  WMO.3PBW  1.20634329224e-07
    BLC.3PBW  BLC...BW  -49614758683.7
    BLC.3PBW  B3P.VOBW  14016.569915
    BLC.3PBW  XCV.3PBW  532706.345738
    BLC.3PBW  XRV.3PBW  55399941.7204
    BLC.3PBW  X12.3PBW  2856484.71378
    BLC.3PBW  WRO.3PBW  16544664.5142
    BLC.3PBW  WMO.3PBW  3741.64927352
    BLV.3PBW  BLV...BW  -2.60664867838e-05
    BLV.3PBW  B3P.VOBW  0.409265887324
    BLV.3PBW  XCV.3PBW  31.108685876
    BLV.3PBW  XRV.3PBW  2588.17173599
    BLV.3PBW  X12.3PBW  147.364465758
    BLV.3PBW  WRO.3PBW  410.193129542
    BLV.3PBW  WMO.3PBW  0.104689066276
    BN4.3PBW  BN4...BW  -135357.905684
    BN4.3PBW  B3P.VOBW  1021.33678736
    BN4.3PBW  XCV.3PBW  443615.839629
    BN4.3PBW  XRV.3PBW  62794565.7457
    BN4.3PBW  X12.3PBW  406217.857645
    BN4.3PBW  WRO.3PBW  1207525.47927
    BN4.3PBW  WMO.3PBW  298.328942698
    BP8.3PBW  BP8...BW  -6.74680414866e-05
    BP8.3PBW  B3P.VOBW  0.000300064365642
    BP8.3PBW  XCV.3PBW  0.00651662150795
    BP8.3PBW  XRV.3PBW  0.948794089838
    BP8.3PBW  X12.3PBW  0.0305227640341
    BP8.3PBW  WRO.3PBW  0.376332678892
    BP8.3PBW  WMO.3PBW  8.78718864252e-05
    BTO.3PBW  BTO...BW  -136.867470819
    BTO.3PBW  B3P.VOBW  0.00478014522326
    BTO.3PBW  XCV.3PBW  -0.0259530960186
    BTO.3PBW  XRV.3PBW  5.03822296782
    BTO.3PBW  X12.3PBW  0.0841245372319
    BTO.3PBW  WRO.3PBW  6.31003227492
    BTO.3PBW  WMO.3PBW  0.00139353818349
    BAL.3RBW  BAL...BW  -3113.1345677
    BAL.3RBW  B3R.VOBW  44.0438462052
    BAL.3RBW  XCV.3RBW  3.61773035912e-05
    BAL.3RBW  XRV.3RBW  106.206333297
    BAL.3RBW  X12.3RBW  0.00014708035692
    BAL.3RBW  HRL.3RBW  1.40412383062
    BAL.3RBW  HML.3RBW  294219.990443
    BAL.3RBW  HRM.3RBW  1.27251932589
    BAL.3RBW  HMM.3RBW  141.80067566
    BAL.3RBW  HRH.3RBW  6.17100394173e-05
    BAL.3RBW  HMH.3RBW  427.907752499
    BHC.3RBW  BHC...BW  -638567.257438
    BHC.3RBW  B3R.VOBW  1369735220.47
    BHC.3RBW  XCV.3RBW  -375.030272331
    BHC.3RBW  XRV.3RBW  412868561.355
    BHC.3RBW  X12.3RBW  -1418.6088798
    BHC.3RBW  HRL.3RBW  41013086.9198
    BHC.3RBW  HML.3RBW  7.66539751402e+12
    BHC.3RBW  HRM.3RBW  36857314.5199
    BHC.3RBW  HMM.3RBW  3675621117.61
    BHC.3RBW  HRH.3RBW  1769.48772385
    BHC.3RBW  HMH.3RBW  11007657680.4
    BLC.3RBW  BLC...BW  -73865.741793
    BLC.3RBW  B3R.VOBW  417.714167731
    BLC.3RBW  XCV.3RBW  0.000400292038263
    BLC.3RBW  XRV.3RBW  1133.17479481
    BLC.3RBW  X12.3RBW  0.00160568082808
    BLC.3RBW  HRL.3RBW  12.8627645464
    BLC.3RBW  HML.3RBW  2369896.09684
    BLC.3RBW  HRM.3RBW  11.6213373731
    BLC.3RBW  HMM.3RBW  1142.50379601
    BLC.3RBW  HRH.3RBW  0.000560207136585
    BLC.3RBW  HMH.3RBW  3436.70499882
    BLV.3RBW  BLV...BW  -9.25433407408e-06
    BLV.3RBW  B3R.VOBW  2908.52966001
    BLV.3RBW  XCV.3RBW  0.00557443992037
    BLV.3RBW  XRV.3RBW  12624.4125971
    BLV.3RBW  X12.3RBW  0.0197537968532
    BLV.3RBW  HRL.3RBW  78.1630996275
    BLV.3RBW  HML.3RBW  16544250.222
    BLV.3RBW  HRM.3RBW  71.6944563209
    BLV.3RBW  HMM.3RBW  8050.22755316
    BLV.3RBW  HRH.3RBW  0.00349815405914
    BLV.3RBW  HMH.3RBW  24391.238938
    BN4.3RBW  BN4...BW  -5754626.53794
    BN4.3RBW  B3R.VOBW  869176089.736
    BN4.3RBW  XCV.3RBW  9519.1345237
    BN4.3RBW  XRV.3RBW  36678451931.4
    BN4.3RBW  X12.3RBW  6520.60160904
    BN4.3RBW  HRL.3RBW  27340246.8541
    BN4.3RBW  HML.3RBW  5.69927357007e+12
    BN4.3RBW  HRM.3RBW  24786684.4951
    BN4.3RBW  HMM.3RBW  2762500442.39
    BN4.3RBW  HRH.3RBW  1201.32369719
    BN4.3RBW  HMH.3RBW  8349013676.54
    BP8.3RBW  BP8...BW  -2270.83758001
    BP8.3RBW  B3R.VOBW  202165791.637
    BP8.3RBW  XCV.3RBW  110.705033733
    BP8.3RBW  XRV.3RBW  438748210.434
    BP8.3RBW  X12.3RBW  387.888555471
    BP8.3RBW  HRL.3RBW  6584036.29999
    BP8.3RBW  HML.3RBW  1.28030610532e+12
    BP8.3RBW  HRM.3RBW  5890053.18716
    BP8.3RBW  HMM.3RBW  609531791.744
    BP8.3RBW  HRH.3RBW  281.771467083
    BP8.3RBW  HMH.3RBW  1814448831.1
    BTO.3RBW  BTO...BW  -230.64317452
    BTO.3RBW  B3R.VOBW  161.24517712
    BTO.3RBW  XCV.3RBW  -2.20742745691e-05
    BTO.3RBW  XRV.3RBW  116.646890537
    BTO.3RBW  X12.3RBW  5.35251866677e-05
    BTO.3RBW  HRL.3RBW  5.47186142712
    BTO.3RBW  HML.3RBW  1010199.29293
    BTO.3RBW  HRM.3RBW  4.88514861544
    BTO.3RBW  HMM.3RBW  480.300567877
    BTO.3RBW  HRH.3RBW  0.000233394694977
    BTO.3RBW  HMH.3RBW  1429.33439671
    D3T...BW  B3T...BW  -327.247240706
    D3T...BW  FAT7..J.  -0.0804968676192
    EAL...BW  BAL...BW  1002878914.75
    EHC...BW  BHC...BW  2.66434041268e-05
    ELC...BW  BLC...BW  26374.9371163
    ELV...BW  BLV...BW  0.307070497736
    EN4...BW  BN4...BW  1995165.66293
    EN4...BW  FAT7..J.  1232793.18257
    EP8...BW  BP8...BW  2.08715275979e-05
    ETO...BW  BTO...BW  0.0369365467297
    ETO...BW  FAT7..J.  0.000140851601322
    M3..3TBW  B3T...BW  190243986.598
    M3..3TBW  B3E...BW  -0.10220255973
    M3..3TBW  B3P...BW  -13893196.976
    M3..3TBW  B3R...BW  -5157.27809572
    QPB73EBW  FAT7..J.  2.5333321486
    QPB73EBW  XPB.3EBW  278.950017195
    QPB73EBW  HRL.3EBW  0.00989224194152
    QPB73EBW  HML.3EBW  2.71166839094
    QPB73EBW  HRM.3EBW  907.316854583
    QPB73EBW  HMM.3EBW  19096864.2214
    QPB73EBW  HRH.3EBW  5175342.07762
    QPB73EBW  HMH.3EBW  23122816.9431
    QPB73EBW  XPB.3ABW  1430.17068668
    QVO73EBW  B3E...BW  8.79815492701e-08
    QVO73EBW  B3E.VOBW  -0.000376617154314
    QVO73EBW  XCV.3EBW  -2106.01972866
    QVO73EBW  XRV.3EBW  -1.39072013042e-05
    QVO73EBW  X12.3EBW  -6204.17429738
    QVO73EBW  NOI.3EBW  -0.076605744803
    QVO73EBW  XPB.3EBW  -0.0116063681102
    QVO73EBW  HRL.3EBW  -9.68444833308e-08
    QVO73EBW  HML.3EBW  -2.65470925286e-05
    QVO73EBW  HRM.3EBW  -0.0288684141014
    QVO73EBW  HMM.3EBW  -607.614236298
    QVO73EBW  HRH.3EBW  -215.331518232
    QVO73EBW  HMH.3EBW  -962.07707026
    QVO73EBW  XPB.3ABW  -0.052504938984
    QVO73PBW  B3P...BW  33911.0799513
    QVO73PBW  B3P.VOBW  -0.172454155334
    QVO73PBW  XCV.3PBW  -14.9810318914
    QVO73PBW  XRV.3PBW  -1817.64872346
    QVO73PBW  X12.3PBW  -37.0267071543
    QVO73PBW  NOI.3PBW  -36501381.945
    QVO73PBW  XPB.3ABW  -87.2691361753
    QPB73RBW  FAT7..J.  6.30048547384e-07
    QPB73RBW  XPB.3RBW  0.00147110340748
    QPB73RBW  HRL.3RBW  2.92996426284e-05
    QPB73RBW  HML.3RBW  6.54576304494
    QPB73RBW  HRM.3RBW  1.58456526768e-05
    QPB73RBW  HMM.3RBW  0.00192087480643
    QPB73RBW  HRH.3RBW  4.71678159948e-10
    QPB73RBW  HMH.3RBW  0.00361828808391
    QPB73RBW  XPB.3ABW  0.000355688441468
    QVO73RBW  B3R...BW  847.900039381
    QVO73RBW  B3R.VOBW  -738598.560352
    QVO73RBW  XCV.3RBW  -1.6178123485
    QVO73RBW  XRV.3RBW  -5343119.52513
    QVO73RBW  X12.3RBW  -2.99116068811
    QVO73RBW  NOI.3RBW  -392.403502052
    QVO73RBW  XPB.3RBW  -87522.8203875
    QVO73RBW  HRL.3RBW  -512.699051954
    QVO73RBW  HML.3RBW  -114540862.342
    QVO73RBW  HRM.3RBW  -554.548217544
    QVO73RBW  HMM.3RBW  -67224.602341
    QVO73RBW  HRH.3RBW  -0.028062268947
    QVO73RBW  HMH.3RBW  -215269.166118
    QVO73RBW  XPB.3ABW  -18671.9722349
    WMO73EBW  NOI.3EBW  1.5372432824
    WMO73EBW  HML.3EBW  -0.0572024965282
    WMO73EBW  HMM.3EBW  -886951.563023
    WMO73EBW  HMH.3EBW  -1350645.79482
    WRO73EBW  NOI.3EBW  117.83451054
    WRO73EBW  HRL.3EBW  -0.0387333805211
    WRO73EBW  HRM.3EBW  -5780.87761824
    WRO73EBW  HRH.3EBW  -40187503.3495
    WMO73PBW  WMO.3PBW  -5.5371493479e-09
    WMO73PBW  NOI.3PBW  3.05702644397
    WRO73PBW  WRO.3PBW  -100.6524397
    WRO73PBW  NOI.3PBW  4700363.84556
    WMO73RBW  NOI.3RBW  0.000356257826912
    WMO73RBW  HML.3RBW  -5723.67212005
    WMO73RBW  HMM.3RBW  -2.70345784072
    WMO73RBW  HMH.3RBW  -7.98743881678
    WRO73RBW  NOI.3RBW  0.00481186332918
    WRO73RBW  HRL.3RBW  -0.924940885925
    WRO73RBW  HRM.3RBW  -0.822509266362
    WRO73RBW  HRH.3RBW  -3.91247753907e-05
RHS
BOUNDS
  UP  77BOUND  BHC.3EBW  455.217847802
  UP  77BOUND  D3T...BW  40995.3840143
  UP  77BOUND  EAL...BW  0.00206740121124
  UP  77BOUND  EHC...BW  1026528.27742
  UP  77BOUND  ELC...BW  491.66924642
  UP  77BOUND  ELV...BW  0.000364733320002
  UP  77BOUND  EN4...BW  0.000973399282998
  UP  77BOUND  EP8...BW  55252.6128683
  UP  77BOUND  ETO...BW  567973.663408
ENDATA
