NAME          SC50A_RESC
ROWS
 N  MAXIM
 L  ROW00001
 L  ROW00002
 L  ROW00003
 E  ROW00004
 E  ROW00005
 E  ROW00006
 E  ROW00007
 L  ROW00008
 L  ROW00009
 L  ROW00010
 L  ROW00011
 L  ROW00012
 L  ROW00013
 E  ROW00014
 E  ROW00015
 E  ROW00016
 E  ROW00017
 E  ROW00018
 L  ROW00019
 L  ROW00020
 L  ROW00021
 L  ROW00022
 L  ROW00023
 L  ROW00024
 E  ROW00025
 E  ROW00026
 E  ROW00027
 E  ROW00028
 E  ROW00029
 L  ROW00030
 L  ROW00031
 L  ROW00032
 L  ROW00033
 L  ROW00034
 L  ROW00035
 E  ROW00036
 E  ROW00037
 E  ROW00038
 E  ROW00039
 E  ROW00040
 L  ROW00041
 L  ROW00042
 L  ROW00043
 L  ROW00044
 L  ROW00045
 L  ROW00046
 E  ROW00047
 L  ROW00048
 L  ROW00049
 L  ROW00050
COLUMNS
    COL00001  ROW00001  0.00493206213865
    COL00001  ROW00002  0.0199052016078
    COL00001  ROW00005  -0.0027725245124
    COL00002  ROW00001  2.46548532235e-05
    COL00002  ROW00002  0.000398015929425
    COL00002  ROW00006  -0.00299756811106
    COL00003  ROW00001  0.0759528949361
    COL00003  ROW00002  0.613073251674
    COL00003  ROW00007  -11.610899301
    COL00004  MAXIM  -0.0564770099542
    COL00004  ROW00004  0.175729192063
    COL00004  ROW00014  0.206089473486
    COL00005  ROW00004  -524.574427279
    COL00005  ROW00013  64.6551347609
    COL00005  ROW00015  4506.73085529
    COL00006  ROW00005  0.00016482311405
    COL00006  ROW00008  -0.000408018400971
    COL00006  ROW00016  -24.538600531
    COL00007  ROW00006  0.932437977729
    COL00007  ROW00009  -60.0234868822
    COL00007  ROW00017  -0.119142112117
    COL00008  ROW00007  0.187173825061
    COL00008  ROW00010  -0.00120217985532
    COL00008  ROW00018  -1.94634834105
    COL00009  ROW00008  0.0432404733244
    COL00009  ROW00011  -1.05882965051
    COL00010  ROW00009  0.386632490595
    COL00010  ROW00012  -0.0190667439481
    COL00011  ROW00010  5.80440041634e-05
    COL00011  ROW00013  -0.00462906594309
    COL00012  ROW00011  13.4760139704
    COL00012  ROW00012  38.1595644998
    COL00012  ROW00016  -16548.7746821
    COL00013  ROW00011  7.2562068281
    COL00013  ROW00012  82.1886035704
    COL00013  ROW00017  -1.6540456547
    COL00014  ROW00011  0.842030162568
    COL00014  ROW00012  4.76869560537
    COL00014  ROW00018  -19.640407269
    COL00015  ROW00014  -1114.98620026
    COL00015  ROW00015  8984.72496839
    COL00015  ROW00025  82820.3709812
    COL00016  ROW00015  -0.458856632048
    COL00016  ROW00024  0.00131391206807
    COL00016  ROW00026  0.0556708597957
    COL00017  ROW00016  69664.2998348
    COL00017  ROW00019  -1917.35587077
    COL00017  ROW00027  -85.756044041
    COL00018  ROW00017  0.000523758218185
    COL00018  ROW00020  -0.000589180496465
    COL00018  ROW00028  -0.450387082275
    COL00019  ROW00018  4758.05620464
    COL00019  ROW00021  -0.623859548271
    COL00019  ROW00029  -0.929442166244
    COL00020  ROW00019  83.0715566534
    COL00020  ROW00022  -3827.52483433
    COL00021  ROW00020  0.249820010419
    COL00021  ROW00023  -0.270215381114
    COL00022  ROW00021  0.679662141966
    COL00022  ROW00024  -50.9645966012
    COL00023  ROW00022  73111.8758742
    COL00023  ROW00023  3.25539446573
    COL00023  ROW00027  -35.4857733068
    COL00024  ROW00022  38042.2771423
    COL00024  ROW00023  6.77551311559
    COL00024  ROW00028  -2394.2357674
    COL00025  ROW00022  2.19490362054
    COL00025  ROW00023  0.000195461462688
    COL00025  ROW00029  -3.21098733948e-06
    COL00026  ROW00025  -36.8115631254
    COL00026  ROW00026  0.532961056074
    COL00026  ROW00036  1.09056541402
    COL00027  ROW00026  -0.0104796377911
    COL00027  ROW00035  5.65608127572e-05
    COL00027  ROW00037  0.000198768324523
    COL00028  ROW00027  0.00975042351402
    COL00028  ROW00030  -0.252904212206
    COL00028  ROW00038  -0.408983294698
    COL00029  ROW00028  0.83726705352
    COL00029  ROW00031  -0.00337804122271
    COL00029  ROW00039  -0.413229000698
    COL00030  ROW00029  0.215738492128
    COL00030  ROW00032  -0.497700267335
    COL00030  ROW00040  -2.91168333247
    COL00031  ROW00030  0.100535733823
    COL00031  ROW00033  -0.052909088885
    COL00032  ROW00031  0.0106171905344
    COL00032  ROW00034  -23.406136789
    COL00033  ROW00032  0.00317832390661
    COL00033  ROW00035  -0.0158572868358
    COL00034  ROW00033  2295.05378292
    COL00034  ROW00034  48478.1006003
    COL00034  ROW00038  -3526.16432734
    COL00035  ROW00033  5680.53093932
    COL00035  ROW00034  479956.247455
    COL00035  ROW00039  -13316.1099943
    COL00036  ROW00033  244.320713356
    COL00036  ROW00034  10321.5046279
    COL00036  ROW00040  -0.364050114127
    COL00037  ROW00036  -0.115521951106
    COL00037  ROW00037  0.0011778822046
    COL00037  ROW00047  3.93004125862
    COL00038  ROW00037  -0.114518231522
    COL00038  ROW00046  66.394003296
    COL00039  ROW00038  485.617510617
    COL00039  ROW00041  -1640.87502009
    COL00040  ROW00039  0.0440843067044
    COL00040  ROW00042  -0.0180804165395
    COL00041  ROW00040  0.246375518211
    COL00041  ROW00043  -150.00248386
    COL00042  ROW00041  15.4529804969
    COL00042  ROW00044  -13.4941493296
    COL00043  ROW00042  30.4870207194
    COL00043  ROW00045  -1.28717959491
    COL00044  ROW00043  130.014902314
    COL00044  ROW00046  -371.050015254
    COL00045  ROW00044  1722.85795916
    COL00045  ROW00045  3.85658051478
    COL00045  ROW00048  -0.0340231480832
    COL00045  ROW00049  129.829983432
    COL00046  ROW00044  114.486203578
    COL00046  ROW00045  1.02509962492
    COL00046  ROW00048  0.000565220864132
    COL00046  ROW00049  -138.03800212
    COL00047  ROW00044  266.054344375
    COL00047  ROW00045  1.19111386395
    COL00047  ROW00048  0.00131351605463
    COL00047  ROW00049  40.0982924197
    COL00047  ROW00050  -0.492026609407
    COL00048  ROW00047  -2.88256686203
    COL00048  ROW00050  0.0035683075386
RHS
    RHS  ROW00001  0.555065103241
    RHS  ROW00002  3.42615015009
    RHS  ROW00011  37.8284079878
    RHS  ROW00012  163.826611272
    RHS  ROW00022  117817.708045
    RHS  ROW00023  8.02325675456
    RHS  ROW00033  1561.16686833
    RHS  ROW00034  50434.356127
    RHS  ROW00044  14154.7897338
    RHS  ROW00045  48.4597063468
ENDATA
