NAME          SC50A_RESC
ROWS
 N  MAXIM
 L  ROW00001
 L  ROW00002
 L  ROW00003
 E  ROW00004
 E  ROW00005
 E  ROW00006
 E  ROW00007
 L  ROW00008
 L  ROW00009
 L  ROW00010
 L  ROW00011
 L  ROW00012
 L  ROW00013
 E  ROW00014
 E  ROW00015
 E  ROW00016
 E  ROW00017
 E  ROW00018
 L  ROW00019
 L  ROW00020
 L  ROW00021
 L  ROW00022
 L  ROW00023
 L  ROW00024
 E  ROW00025
 E  ROW00026
 E  ROW00027
 E  ROW00028
 E  ROW00029
 L  ROW00030
 L  ROW00031
 L  ROW00032
 L  ROW00033
 L  ROW00034
 L  ROW00035
 E  ROW00036
 E  ROW00037
 E  ROW00038
 E  ROW00039
 E  ROW00040
 L  ROW00041
 L  ROW00042
 L  ROW00043
 L  ROW00044
 L  ROW00045
 L  ROW00046
 E  ROW00047
 L  ROW00048
 L  ROW00049
 L  ROW00050
COLUMNS
    COL00001  ROW00001  1.21626184698e-05
    COL00001  ROW00002  0.000396217051048
    COL00001  ROW00005  -7.68689217187e-06
    COL00002  ROW00001  6.07861787471e-10
    COL00002  ROW00002  7.92083400381e-08
    COL00002  ROW00006  -8.98541458044e-06
    COL00003  ROW00001  0.00384589483278
    COL00003  ROW00002  0.250572541279
    COL00003  ROW00007  -134.812982578
    COL00004  MAXIM  -0.00318965265337
    COL00004  ROW00004  0.0308807489431
    COL00004  ROW00014  0.0386117009835
    COL00005  ROW00004  -275178.329755
    COL00005  ROW00013  4180.28645094
    COL00005  ROW00015  20310623.002
    COL00006  ROW00005  2.71666589251e-08
    COL00006  ROW00008  -1.66479015531e-07
    COL00006  ROW00016  -602.142916018
    COL00007  ROW00006  0.869440582311
    COL00007  ROW00009  -3602.81897749
    COL00007  ROW00017  -0.0141948428797
    COL00008  ROW00007  0.0350340407878
    COL00008  ROW00010  -1.44523640454e-06
    COL00008  ROW00018  -3.78827186472
    COL00009  ROW00008  0.00186973853332
    COL00009  ROW00011  -1.12112022879
    COL00010  ROW00009  0.149484682783
    COL00010  ROW00012  -0.000363540724781
    COL00011  ROW00010  3.36910641932e-09
    COL00011  ROW00013  -2.14282515055e-05
    COL00012  ROW00011  90.8014762654
    COL00012  ROW00012  1456.15236282
    COL00012  ROW00016  -273861943.479
    COL00013  ROW00011  52.6525375322
    COL00013  ROW00012  3377.48327842
    COL00013  ROW00017  -2.73586702784
    COL00014  ROW00011  0.472676529783
    COL00014  ROW00012  15.1603051844
    COL00014  ROW00018  -385.745597692
    COL00015  ROW00014  -1243194.22676
    COL00015  ROW00015  80725282.7576
    COL00015  ROW00025  6235648954.06
    COL00016  ROW00015  -0.210549408775
    COL00016  ROW00024  1.72636492263e-06
    COL00016  ROW00026  0.0030992446304
    COL00017  ROW00016  4853114671.48
    COL00017  ROW00019  -3676253.53516
    COL00017  ROW00027  -7354.09908957
    COL00018  ROW00017  2.74322671116e-07
    COL00018  ROW00020  -3.47133657415e-07
    COL00018  ROW00028  -0.202848523881
    COL00019  ROW00018  22639098.8465
    COL00019  ROW00021  -0.389200735969
    COL00019  ROW00029  -0.863862740393
    COL00020  ROW00019  6900.88352482
    COL00020  ROW00022  -14649946.3574
    COL00021  ROW00020  0.0624100376059
    COL00021  ROW00023  -0.0730163521904
    COL00022  ROW00021  0.461940627222
    COL00022  ROW00024  -2597.39010673
    COL00023  ROW00022  2672673196.92
    COL00023  ROW00023  10.5975931275
    COL00023  ROW00027  -1259.24010718
    COL00024  ROW00022  1447214850.17
    COL00024  ROW00023  22.9537889898
    COL00024  ROW00028  -5732364.9099
    COL00025  ROW00022  3.2117346023
    COL00025  ROW00023  2.54701222641e-08
    COL00025  ROW00029  -1.03104396943e-11
    COL00026  ROW00025  -1355.09117973
    COL00026  ROW00026  0.284047487292
    COL00026  ROW00036  1.0812117475
    COL00027  ROW00026  -0.000109822808233
    COL00027  ROW00035  3.19912553975e-09
    COL00027  ROW00037  3.95088468336e-08
    COL00028  ROW00027  9.50707587028e-05
    COL00028  ROW00030  -0.0639605405513
    COL00028  ROW00038  -0.167267335342
    COL00029  ROW00028  0.701016118911
    COL00029  ROW00031  -1.14111625023e-05
    COL00029  ROW00039  -0.170758207018
    COL00030  ROW00029  0.0465430969855
    COL00030  ROW00032  -0.247705556105
    COL00030  ROW00040  -8.4778998286
    COL00031  ROW00030  0.0101074337754
    COL00031  ROW00033  -0.00279937168664
    COL00032  ROW00031  0.000112724734844
    COL00032  ROW00034  -547.847239384
    COL00033  ROW00032  1.01017428553e-05
    COL00033  ROW00035  -0.000251453545791
    COL00034  ROW00033  2633635.93325
    COL00034  ROW00034  2350126237.81
    COL00034  ROW00038  -12433834.8634
    COL00035  ROW00033  32268431.7526
    COL00035  ROW00034  115178999736
    COL00035  ROW00039  -177318785.38
    COL00036  ROW00033  39795.0739832
    COL00036  ROW00034  71022305.1887
    COL00036  ROW00040  -0.132532485596
    COL00037  ROW00036  -0.0133453211873
    COL00037  ROW00037  1.38740648792e-06
    COL00037  ROW00047  14.041112995
    COL00038  ROW00037  -0.0131144253508
    COL00038  ROW00046  4408.16367367
    COL00039  ROW00038  235824.366618
    COL00039  ROW00041  -2692470.83154
    COL00040  ROW00039  0.0019434260976
    COL00040  ROW00042  -0.000326901462241
    COL00041  ROW00040  0.0607008959739
    COL00041  ROW00043  -22500.7451641
    COL00042  ROW00041  238.794606237
    COL00042  ROW00044  -182.092066131
    COL00043  ROW00042  929.458432343
    COL00043  ROW00045  -1.65683130955
    COL00044  ROW00043  16903.8748236
    COL00044  ROW00046  -137678.11382
    COL00045  ROW00044  1484119.77373
    COL00045  ROW00045  14.873213267
    COL00045  ROW00048  -0.00144696825687
    COL00045  ROW00049  168558.245979
    COL00046  ROW00044  13107.0908097
    COL00046  ROW00045  0.525414620501
    COL00046  ROW00048  3.1947462525e-06
    COL00046  ROW00049  -23818.1125365
    COL00047  ROW00044  47189.9427737
    COL00047  ROW00045  0.945834824597
    COL00047  ROW00048  1.15021628385e-05
    COL00047  ROW00049  10719.1536999
    COL00047  ROW00050  -0.242090184364
    COL00048  ROW00047  -8.30919171409
    COL00048  ROW00050  1.273281869e-05
RHS
    RHS  ROW00001  0.00181233687551
    RHS  ROW00002  0.0902961911614
    RHS  ROW00011  8.41757912289
    RHS  ROW00012  206.455065854
    RHS  ROW00022  81653013.6994
    RHS  ROW00023  0.495174222689
    RHS  ROW00033  14336.7175927
    RHS  ROW00034  19566340.5996
    RHS  ROW00044  1178576.89651
    RHS  ROW00045  18.064177994
ENDATA
