NAME          AFIRO
ROWS
 E  R09
 E  R10
 L  X05
 L  X21
 E  R12
 E  R13
 L  X17
 L  X18
 L  X19
 L  X20
 E  R19
 E  R20
 L  X27
 L  X44
 E  R22
 E  R23
 L  X40
 L  X41
 L  X42
 L  X43
 L  X45
 L  X46
 L  X47
 L  X48
 L  X49
 L  X50
 L  X51
 N  COST
COLUMNS
    X01  X48  0.301
    X01  R09  -1
    X01  R10  -1.06
    X01  X05  1
    X02  X21  -1
    X02  R09  1
    X02  COST  -0.4
    X03  X46  -1
    X03  R09  1
    X04  X50  1
    X04  R10  1
    X06  X49  0.301
    X06  R12  -1
    X06  R13  -1.06
    X06  X17  1
    X07  X49  0.313
    X07  R12  -1
    X07  R13  -1.06
    X07  X18  1
    X08  X49  0.313
    X08  R12  -1
    X08  R13  -0.96
    X08  X19  1
    X09  X49  0.326
    X09  R12  -1
    X09  R13  -0.86
    X09  X20  1
    X10  X45  2.364
    X10  X17  -1
    X11  X45  2.386
    X11  X18  -1
    X12  X45  2.408
    X12  X19  -1
    X13  X45  2.429
    X13  X20  -1
    X14  X21  1.4
    X14  R12  1
    X14  COST  -0.32
    X15  X47  -1
    X15  R12  1
    X16  X51  1
    X16  R13  1
    X22  X46  0.109
    X22  R19  -1
    X22  R20  -0.43
    X22  X27  1
    X23  X44  -1
    X23  R19  1
    X23  COST  -0.6
    X24  X48  -1
    X24  R19  1
    X25  X45  -1
    X25  R19  1
    X26  X50  1
    X26  R20  1
    X28  X47  0.109
    X28  R22  -0.43
    X28  R23  1
    X28  X40  1
    X29  X47  0.108
    X29  R22  -0.43
    X29  R23  1
    X29  X41  1
    X30  X47  0.108
    X30  R22  -0.39
    X30  R23  1
    X30  X42  1
    X31  X47  0.107
    X31  R22  -0.37
    X31  R23  1
    X31  X43  1
    X32  X45  2.191
    X32  X40  -1
    X33  X45  2.219
    X33  X41  -1
    X34  X45  2.249
    X34  X42  -1
    X35  X45  2.279
    X35  X43  -1
    X36  X44  1.4
    X36  R23  -1
    X36  COST  -0.48
    X37  X49  -1
    X37  R23  1
    X38  X51  1
    X38  R22  1
    X39  R23  1
    X39  COST  10
RHS
    RHS  X50  310
    RHS  X51  300
    RHS  X05  80
    RHS  X17  80
    RHS  X27  500
    RHS  R23  44
    RHS  X40  500
QUADOBJ
    X01  X01  1.0236
    X03  X03  0.3385
    X06  X06  0.3031
    X09  X09  1.0472
    X11  X11  0.319
    X14  X14  1.6426
    X15  X15  1.9628
    X16  X16  1.1298
    X22  X22  0.7389
    X23  X23  0.5088
    X26  X26  0.9608
    X28  X28  0.2121
    X30  X30  0.338
    X32  X32  1.8078
    X33  X33  0.1145
    X34  X34  0.7242
    X35  X35  1.817
    X37  X37  0.0829
    X38  X38  1.993
    X39  X39  1.3975
ENDATA
