NAME          ADLITTLE
ROWS
 N  .Z....
 L  ....01
 E  ....02
 L  ....03
 L  ....04
 L  ....05
 L  ....06
 L  ....07
 L  ....08
 L  ....09
 E  ....10
 L  ....11
 L  ....12
 L  ....13
 L  ....14
 L  ....15
 L  ....16
 L  ....17
 L  ....18
 L  ....19
 L  ....20
 L  ....21
 L  ....22
 L  ....23
 L  ....24
 E  ....25
 L  ....26
 L  ....27
 E  ....28
 L  ....29
 L  ....30
 E  ....31
 E  ....32
 E  ....33
 L  ....34
 L  ....35
 E  ....36
 L  ....37
 L  ....38
 L  ....39
 E  ....40
 L  ....41
 E  ....42
 E  ....43
 E  ....44
 L  ....45
 L  ....46
 L  ....47
 L  ....48
 E  ....49
 E  ....50
 G  ....51
 L  ....52
 L  ....53
 E  ....54
 L  ....55
 L  ....56
COLUMNS
    ...100  .Z....  -3280
    ...100  ....01  0.506
    ...100  ....04  1
    ...100  ....05  0.182
    ...100  ....55  0.312
    ...101  .Z....  -3280
    ...101  ....01  0.638
    ...101  ....04  1
    ...101  ....05  0.05
    ...101  ....55  0.312
    ...102  .Z....  3310
    ...102  ....01  -1
    ...103  .Z....  -1890
    ...103  ....05  0.92
    ...103  ....30  1
    ...103  ....49  -9.5
    ...103  ....52  -0.042
    ...103  ....53  -0.063
    ...103  ....55  0.08
    ...104  ....34  0.825
    ...104  ....35  0.175
    ...104  ....40  1
    ...104  ....51  16
    ...105  ....35  0.175
    ...105  ....40  1
    ...105  ....46  0.825
    ...105  ....51  21
    ...106  .Z....  -1890
    ...106  ....06  1
    ...106  ....30  1
    ...106  ....49  3.6
    ...106  ....52  -0.042
    ...106  ....53  -0.063
    ...107  .Z....  -903
    ...107  ....06  1
    ...107  ....38  1
    ...108  ....06  1
    ...108  ....50  -0.8
    ...109  .Z....  432
    ...109  ....31  -1.23
    ...109  ....42  0.23
    ...110  .Z....  432
    ...110  ....32  -1.23
    ...110  ....43  0.23
    ...110  ....56  1
    ...111  .Z....  432
    ...111  ....33  -1.23
    ...111  ....44  0.23
    ...111  ....56  1
    ...112  .Z....  446
    ...112  ....07  1
    ...112  ....31  -1
    ...113  .Z....  446
    ...113  ....07  1
    ...113  ....32  -1
    ...114  .Z....  446
    ...114  ....07  1
    ...114  ....33  -1
    ...115  .Z....  450
    ...115  ....08  1
    ...115  ....31  -0.95
    ...115  ....42  -0.05
    ...116  .Z....  450
    ...116  ....08  1
    ...116  ....32  -0.95
    ...116  ....43  -0.05
    ...117  .Z....  450
    ...117  ....08  1
    ...117  ....33  -0.95
    ...117  ....44  -0.05
    ...118  .Z....  459
    ...118  ....09  1
    ...118  ....31  -0.79
    ...118  ....42  -0.21
    ...119  .Z....  459
    ...119  ....09  1
    ...119  ....32  -0.79
    ...119  ....43  -0.21
    ...120  .Z....  459
    ...120  ....09  1
    ...120  ....33  -0.79
    ...120  ....44  -0.21
    ...121  .Z....  483
    ...121  ....11  1
    ...121  ....31  -0.42
    ...121  ....42  -0.58
    ...122  .Z....  483
    ...122  ....11  1
    ...122  ....32  -0.42
    ...122  ....43  -0.58
    ...123  .Z....  483
    ...123  ....11  1
    ...123  ....33  -0.42
    ...123  ....44  -0.58
    ...124  .Z....  500
    ...124  ....12  1
    ...124  ....31  -0.05
    ...124  ....42  -0.95
    ...125  .Z....  500
    ...125  ....12  1
    ...125  ....32  -0.05
    ...125  ....43  -0.95
    ...126  .Z....  500
    ...126  ....12  1
    ...126  ....33  -0.05
    ...126  ....44  -0.95
    ...127  .Z....  493
    ...127  ....13  1
    ...127  ....31  -0.26
    ...127  ....42  -0.74
    ...128  .Z....  493
    ...128  ....13  1
    ...128  ....32  -0.26
    ...128  ....43  -0.74
    ...129  .Z....  493
    ...129  ....13  1
    ...129  ....33  -0.26
    ...129  ....44  -0.74
    ...130  .Z....  -1890
    ...130  ....14  1
    ...130  ....30  1
    ...130  ....49  -3.2
    ...130  ....52  -0.042
    ...130  ....53  -0.063
    ...131  .Z....  -903
    ...131  ....14  1
    ...131  ....38  1
    ...132  .Z....  506
    ...132  ....17  1
    ...132  ....31  0.26
    ...132  ....42  -1.26
    ...133  ....14  1
    ...133  ....50  -0.8
    ...134  .Z....  506
    ...134  ....17  1
    ...134  ....32  0.26
    ...134  ....43  -1.26
    ...135  .Z....  506
    ...135  ....17  1
    ...135  ....33  0.26
    ...135  ....44  -1.26
    ...136  .Z....  505
    ...136  ....15  1
    ...136  ....31  0.16
    ...136  ....42  -1.16
    ...137  .Z....  505
    ...137  ....15  1
    ...137  ....32  0.16
    ...137  ....43  -1.16
    ...138  .Z....  505
    ...138  ....15  1
    ...138  ....33  0.16
    ...138  ....44  -1.16
    ...139  .Z....  499
    ...139  ....16  1
    ...139  ....31  -0.16
    ...139  ....42  -0.84
    ...140  .Z....  499
    ...140  ....16  1
    ...140  ....32  -0.16
    ...140  ....43  -0.84
    ...141  .Z....  499
    ...141  ....16  1
    ...141  ....33  -0.16
    ...141  ....44  -0.84
    ...142  ....10  -1
    ...143  ....02  1
    ...143  ....03  0.79
    ...143  ....10  37
    ...143  ....28  0.494
    ...143  ....34  0.506
    ...143  ....54  2.27424
    ...144  ....02  1
    ...144  ....03  0.53
    ...144  ....10  47
    ...144  ....28  0.492
    ...144  ....46  0.508
    ...144  ....54  2.2632
    ...145  .Z....  512
    ...145  ....18  1
    ...145  ....31  0.62
    ...145  ....42  -1.62
    ...146  .Z....  512
    ...146  ....18  1
    ...146  ....32  0.62
    ...146  ....43  -1.62
    ...147  .Z....  512
    ...147  ....18  1
    ...147  ....33  0.62
    ...147  ....44  -1.62
    ...148  .Z....  70.9
    ...148  ....01  -0.247
    ...148  ....06  0.1726
    ...148  ....14  -0.3122
    ...148  ....20  1.783
    ...148  ....28  0.4703
    ...148  ....50  -0.0928
    ...148  ....54  1.40015
    ...149  .Z....  39.8
    ...149  ....01  -0.157
    ...149  ....14  -0.2399
    ...149  ....20  1
    ...149  ....28  0.4273
    ...149  ....50  -0.0361
    ...149  ....54  1.20404
    ...150  .Z....  39.8
    ...150  ....01  -0.157
    ...150  ....14  -0.2789
    ...150  ....20  1
    ...150  ....28  0.4663
    ...150  ....50  -0.0361
    ...150  ....54  1.43498
    ...151  .Z....  2.04
    ...151  ....26  1
    ...151  ....28  0.55
    ...151  ....50  -0.52
    ...151  ....54  0.6
    ...152  ....28  1
    ...152  ....50  -1
    ...152  ....54  1.8
    ...153  .Z....  1.8
    ...153  ....03  -0.33
    ...153  ....21  1
    ...153  ....50  0.017
    ...154  .Z....  1.8
    ...154  ....21  1
    ...154  ....37  -0.33
    ...155  .Z....  -2600
    ...155  ....01  0.2
    ...155  ....14  0.73
    ...155  ....29  1
    ...155  ....55  0.07
    ...156  .Z....  -2600
    ...156  ....14  0.72
    ...156  ....29  1
    ...156  ....47  0.2
    ...156  ....55  0.08
    ...157  .Z....  10.4
    ...157  ....02  1
    ...157  ....03  0.25
    ...157  ....10  45
    ...157  ....22  0.875
    ...157  ....28  0.3675
    ...157  ....34  0.6325
    ...157  ....50  0.02536
    ...157  ....54  1.614
    ...158  .Z....  10.4
    ...158  ....02  1
    ...158  ....03  0.2
    ...158  ....10  55
    ...158  ....22  0.875
    ...158  ....28  0.365
    ...158  ....46  0.635
    ...158  ....50  0.02538
    ...158  ....54  1.59
    ...159  .Z....  28.8
    ...159  ....19  1
    ...159  ....28  -0.828
    ...159  ....31  1
    ...159  ....34  -0.095
    ...159  ....35  -0.02
    ...159  ....50  0.012
    ...159  ....54  -1.42
    ...159  ....55  -0.0467
    ...160  .Z....  43.4
    ...160  ....01  -0.0022
    ...160  ....06  -0.0192
    ...160  ....19  1
    ...160  ....27  0.679
    ...160  ....28  -0.808
    ...160  ....32  1
    ...160  ....34  -0.095
    ...160  ....35  -0.02
    ...160  ....50  0.0205
    ...160  ....54  -1.84
    ...160  ....55  -0.0467
    ...161  .Z....  30.4
    ...161  ....01  -0.0022
    ...161  ....06  -0.0192
    ...161  ....24  1
    ...161  ....27  0.679
    ...161  ....28  -0.808
    ...161  ....33  1
    ...161  ....34  -0.095
    ...161  ....35  -0.02
    ...161  ....50  0.0205
    ...161  ....54  -1.84
    ...161  ....55  -0.0467
    ...162  ....28  -1
    ...162  ....34  1
    ...162  ....54  -5.2
    ...163  ....28  -1
    ...163  ....35  1
    ...163  ....54  -6.7
    ...164  .Z....  -1218
    ...164  ....35  1
    ...164  ....48  1
    ...165  ....35  1
    ...165  ....50  -0.8
    ...166  ....28  0.482
    ...166  ....34  0.498
    ...166  ....35  0.02
    ...166  ....36  1
    ...166  ....37  0.79
    ...166  ....54  2.217
    ...167  ....28  0.474
    ...167  ....35  0.02
    ...167  ....36  1
    ...167  ....37  0.53
    ...167  ....46  0.506
    ...167  ....54  2.18
    ...168  .Z....  -1322
    ...168  ....06  0.07
    ...168  ....35  0.1
    ...168  ....39  1
    ...168  ....55  0.83
    ...169  .Z....  -1322
    ...169  ....35  0.07
    ...169  ....39  1
    ...169  ....46  0.33
    ...169  ....55  0.6
    ...170  .Z....  -1322
    ...170  ....34  0.33
    ...170  ....35  0.07
    ...170  ....39  1
    ...170  ....55  0.6
    ...171  .Z....  -1660
    ...171  ....22  0.625
    ...171  ....28  -0.125
    ...171  ....34  1.125
    ...171  ....41  1
    ...171  ....50  0.01812
    ...171  ....54  -0.65
    ...172  .Z....  -1670
    ...172  ....41  1
    ...172  ....46  1
    ...173  .Z....  14.8
    ...173  ....22  1.25
    ...173  ....28  -0.25
    ...173  ....34  1.03125
    ...173  ....35  0.21875
    ...173  ....40  1
    ...173  ....50  0.03625
    ...173  ....51  30
    ...173  ....54  -1.36562
    ...174  .Z....  14.8
    ...174  ....22  1.25
    ...174  ....28  -0.25
    ...174  ....35  0.21875
    ...174  ....40  1
    ...174  ....46  1.03125
    ...174  ....50  0.03625
    ...174  ....51  35
    ...174  ....54  -1.38375
    ...175  .Z....  28.8
    ...175  ....19  1.072
    ...175  ....28  -0.706
    ...175  ....35  -0.027
    ...175  ....42  1
    ...175  ....46  -0.128
    ...175  ....50  0.0129
    ...175  ....54  -1.61
    ...175  ....55  -0.1203
    ...176  .Z....  43
    ...176  ....01  -0.0012
    ...176  ....06  -0.0159
    ...176  ....19  1.072
    ...176  ....27  0.534
    ...176  ....28  -0.69
    ...176  ....35  -0.027
    ...176  ....43  1
    ...176  ....46  -0.128
    ...176  ....50  0.0195
    ...176  ....54  -1.84
    ...176  ....55  -0.1203
    ...177  .Z....  30
    ...177  ....01  -0.0012
    ...177  ....06  -0.0159
    ...177  ....24  1
    ...177  ....27  0.534
    ...177  ....28  -0.69
    ...177  ....35  -0.027
    ...177  ....44  1
    ...177  ....46  -0.128
    ...177  ....50  0.0195
    ...177  ....54  -1.84
    ...177  ....55  -0.1203
    ...178  .Z....  -1763
    ...178  ....05  0.181
    ...178  ....45  1
    ...178  ....47  0.11
    ...178  ....55  0.709
    ...179  .Z....  -1722
    ...179  ....05  0.051
    ...179  ....45  1
    ...179  ....47  0.055
    ...179  ....55  0.894
    ...180  .Z....  -1680
    ...180  ....05  0.036
    ...180  ....45  1
    ...180  ....55  0.964
    ...181  ....28  -1
    ...181  ....46  1
    ...181  ....54  -5.3
    ...182  .Z....  -1890
    ...182  ....30  1
    ...182  ....47  0.92
    ...182  ....49  -10.1
    ...182  ....52  -0.042
    ...182  ....53  -0.063
    ...182  ....55  0.08
    ...183  .Z....  1780
    ...183  ....02  1
    ...183  ....03  0.4
    ...183  ....10  45
    ...184  .Z....  1600
    ...184  ....28  -1
    ...184  ....54  -4.35
    ...185  .Z....  903
    ...185  ....28  -1
    ...185  ....54  -2.1
    ...186  .Z....  1760
    ...186  ....36  1
    ...186  ....37  0.8
    ...187  .Z....  2100
    ...187  ....40  1
    ...187  ....51  24
    ...188  .Z....  1000
    ...188  ....49  -64.3
    ...188  ....52  1
    ...189  .Z....  1000
    ...189  ....49  -27.4
    ...189  ....53  1
    ...190  .Z....  -1890
    ...190  ....30  1
    ...190  ....49  9.1
    ...190  ....52  -0.042
    ...190  ....53  -0.063
    ...190  ....55  1
    ...191  .Z....  92.1
    ...191  ....05  -0.36
    ...191  ....23  1
    ...191  ....28  -0.026
    ...191  ....47  -0.134
    ...191  ....50  -0.182
    ...191  ....54  -0.1742
    ...191  ....55  0.826
    ...192  .Z....  -903
    ...192  ....38  1
    ...192  ....55  1
    ...193  .Z....  78.7
    ...193  ....55  1
    ...194  .Z....  -1218
    ...194  ....48  1
    ...194  ....55  1
    ...195  .Z....  15.6
    ...195  ....05  -0.396
    ...195  ....25  1
    ...195  ....28  -0.029
    ...195  ....47  -0.147
    ...195  ....50  -0.119
    ...195  ....54  -0.194
    ...195  ....55  0.81
    ...196  ....50  -0.8
    ...196  ....55  1
RHS
    RHS  ....02  52.6
    RHS  ....03  22.7
    RHS  ....04  23.4
    RHS  ....07  108
    RHS  ....08  50
    RHS  ....09  13
    RHS  ....10  2366
    RHS  ....11  200
    RHS  ....12  265
    RHS  ....13  300
    RHS  ....15  31
    RHS  ....16  60
    RHS  ....17  134
    RHS  ....18  34
    RHS  ....19  413
    RHS  ....20  41.5
    RHS  ....21  15
    RHS  ....22  20.6
    RHS  ....23  13.5
    RHS  ....24  440
    RHS  ....26  16
    RHS  ....27  290
    RHS  ....28  -524.9
    RHS  ....29  3.1
    RHS  ....30  9.1
    RHS  ....36  43
    RHS  ....37  34.4
    RHS  ....38  15.6
    RHS  ....39  19.2
    RHS  ....40  44.9
    RHS  ....41  6.1
    RHS  ....45  13.2
    RHS  ....48  31.2
    RHS  ....50  2.5
    RHS  ....51  1080
    RHS  ....54  -1231.6
    RHS  ....56  107
QUADOBJ
    ...100  ...100  0.604234
    ...100  ...110  0.3822
    ...100  ...148  -0.228965
    ...100  ...164  -0.239085
    ...100  ...188  0.040733
    ...100  ...191  0.18375
    ...100  ...195  -0.4557
    ...101  ...101  0.137641
    ...101  ...137  0.332416
    ...101  ...190  0.135044
    ...101  ...191  -0.358757
    ...102  ...102  0.558953
    ...102  ...111  -0.081529
    ...102  ...118  -0.000428
    ...102  ...125  0.106662
    ...102  ...131  -0.113848
    ...102  ...134  0.288472
    ...102  ...160  0.491626
    ...103  ...103  0.162409
    ...103  ...114  -0.053599
    ...103  ...172  -0.294593
    ...103  ...179  0.131378
    ...104  ...104  0.480249
    ...104  ...118  0.58905
    ...104  ...132  -0.677754
    ...104  ...153  0.336105
    ...105  ...105  0.2209
    ...105  ...109  0.2632
    ...105  ...162  0.05781
    ...105  ...174  0.26837
    ...106  ...106  0.753424
    ...106  ...154  0.322896
    ...106  ...166  0.467852
    ...106  ...186  0.064232
    ...109  ...109  0.3136
    ...109  ...162  0.06888
    ...109  ...174  0.31976
    ...110  ...110  0.669824
    ...110  ...143  0.419016
    ...110  ...171  -0.403216
    ...110  ...179  -0.207928
    ...110  ...191  0.13
    ...110  ...195  -0.3224
    ...111  ...111  0.27677
    ...111  ...125  -0.023142
    ...111  ...160  -0.106666
    ...111  ...173  -0.341539
    ...111  ...182  0.430614
    ...111  ...188  -0.158299
    ...112  ...112  0.820836
    ...112  ...126  -0.62514
    ...112  ...163  0.12684
    ...112  ...172  -0.898752
    ...114  ...114  0.205178
    ...114  ...135  0.042001
    ...114  ...162  0.227325
    ...114  ...172  0.097223
    ...114  ...178  0.122539
    ...114  ...179  -0.043358
    ...115  ...115  0.005476
    ...115  ...122  -0.007622
    ...115  ...148  -0.057942
    ...115  ...178  0.029822
    ...116  ...116  0.288369
    ...116  ...122  -0.115455
    ...116  ...147  0.325959
    ...116  ...153  -0.041886
    ...118  ...118  1.702601
    ...118  ...131  0.000266
    ...118  ...132  -0.8313
    ...118  ...134  -0.000674
    ...118  ...153  0.41225
    ...118  ...157  0.69795
    ...118  ...164  -0.85041
    ...118  ...184  -0.93951
    ...119  ...119  0.478864
    ...119  ...140  0.651172
    ...119  ...142  0.473328
    ...119  ...191  -0.514156
    ...121  ...121  0.804609
    ...121  ...135  0.526539
    ...121  ...164  -0.317538
    ...121  ...167  -0.512187
    ...122  ...122  0.056834
    ...122  ...147  -0.130505
    ...122  ...148  0.080649
    ...122  ...153  0.01677
    ...122  ...178  -0.041509
    ...123  ...123  0.293121
    ...123  ...143  -0.21276
    ...123  ...147  -0.5346
    ...123  ...157  -0.033345
    ...123  ...171  -0.031707
    ...123  ...178  -0.009828
    ...123  ...179  -0.18036
    ...125  ...125  0.030276
    ...125  ...160  0.139548
    ...126  ...126  0.4761
    ...126  ...163  -0.0966
    ...126  ...172  0.68448
    ...131  ...131  0.070756
    ...131  ...134  -0.179284
    ...132  ...132  0.956484
    ...132  ...153  -0.47433
    ...134  ...134  0.454276
    ...135  ...135  0.353978
    ...135  ...162  0.050925
    ...135  ...164  -0.207798
    ...135  ...167  -0.335177
    ...135  ...178  0.027451
    ...137  ...137  1.194692
    ...137  ...141  -0.232872
    ...137  ...182  -0.190304
    ...137  ...190  0.326144
    ...137  ...191  -0.866432
    ...137  ...195  0.423176
    ...140  ...140  0.885481
    ...140  ...142  0.643644
    ...140  ...191  -0.699163
    ...141  ...141  0.138384
    ...141  ...182  0.113088
    ...141  ...195  -0.251472
    ...142  ...142  0.467856
    ...142  ...191  -0.508212
    ...143  ...143  0.594805
    ...143  ...147  0.39006
    ...143  ...171  -0.422994
    ...143  ...179  -0.086531
    ...144  ...144  0.546325
    ...144  ...156  -0.430866
    ...144  ...171  0.422334
    ...144  ...172  -0.059388
    ...144  ...177  -0.095344
    ...144  ...180  -0.383211
    ...147  ...147  1.348549
    ...147  ...153  -0.047346
    ...147  ...179  0.33066
    ...148  ...148  1.432114
    ...148  ...164  0.855225
    ...148  ...178  -0.315549
    ...148  ...188  -0.145705
    ...153  ...153  0.241309
    ...154  ...154  0.138384
    ...154  ...166  0.200508
    ...154  ...186  0.027528
    ...156  ...156  0.367236
    ...156  ...171  -0.359964
    ...156  ...180  0.476922
    ...157  ...157  1.228626
    ...157  ...164  -0.605595
    ...157  ...171  0.695115
    ...157  ...178  0.21546
    ...157  ...181  -0.017688
    ...157  ...184  -0.682869
    ...157  ...187  -0.00768
    ...160  ...160  0.643204
    ...162  ...162  0.290754
    ...162  ...174  0.070233
    ...162  ...178  0.148575
    ...163  ...163  0.0196
    ...163  ...172  -0.13888
    ...164  ...164  1.756222
    ...164  ...167  0.202134
    ...164  ...184  0.815191
    ...164  ...188  -0.152145
    ...166  ...166  0.290521
    ...166  ...186  0.039886
    ...167  ...167  0.326041
    ...171  ...171  1.420849
    ...171  ...178  0.204876
    ...171  ...179  0.209902
    ...171  ...180  -0.467478
    ...172  ...172  1.604861
    ...172  ...177  0.138768
    ...172  ...179  -0.238306
    ...172  ...180  -0.256662
    ...173  ...173  0.450241
    ...173  ...182  -0.567666
    ...173  ...188  0.208681
    ...174  ...174  0.326041
    ...177  ...177  0.222784
    ...177  ...180  -0.412056
    ...178  ...178  0.306002
    ...179  ...179  0.326073
    ...180  ...180  1.381498
    ...181  ...181  0.543169
    ...181  ...184  0.424512
    ...181  ...187  0.23584
    ...182  ...182  0.808132
    ...182  ...188  -0.263106
    ...182  ...195  -0.205504
    ...184  ...184  1.232377
    ...184  ...187  0.18432
    ...186  ...186  0.005476
    ...187  ...187  0.1024
    ...188  ...188  0.122642
    ...190  ...190  0.132496
    ...190  ...191  -0.351988
    ...191  ...191  1.549638
    ...191  ...195  -0.155
    ...195  ...195  0.841376
ENDATA
