NAME          ADLITTLE_RESC
ROWS
 N  .Z....
 L  ....01
 E  ....02
 L  ....03
 L  ....04
 L  ....05
 L  ....06
 L  ....07
 L  ....08
 L  ....09
 E  ....10
 L  ....11
 L  ....12
 L  ....13
 L  ....14
 L  ....15
 L  ....16
 L  ....17
 L  ....18
 L  ....19
 L  ....20
 L  ....21
 L  ....22
 L  ....23
 L  ....24
 E  ....25
 L  ....26
 L  ....27
 E  ....28
 L  ....29
 L  ....30
 E  ....31
 E  ....32
 E  ....33
 L  ....34
 L  ....35
 E  ....36
 L  ....37
 L  ....38
 L  ....39
 E  ....40
 L  ....41
 E  ....42
 E  ....43
 E  ....44
 L  ....45
 L  ....46
 L  ....47
 L  ....48
 E  ....49
 E  ....50
 G  ....51
 L  ....52
 L  ....53
 E  ....54
 L  ....55
 L  ....56
COLUMNS
    ...100  .Z....  -41746.2987419
    ...100  ....01  0.00887646941044
    ...100  ....04  0.000161337542907
    ...100  ....05  36.81474804
    ...100  ....55  0.165974107024
    ...101  .Z....  -5087139.11624
    ...101  ....01  1.36384827989
    ...101  ....04  0.0196603423579
    ...101  ....05  1232.46923306
    ...101  ....55  20.2253468588
    ...102  .Z....  254.77704461
    ...102  ....01  -0.000106090846032
    ...103  .Z....  -0.427071654796
    ...103  ....05  0.00330394708025
    ...103  ....30  4.06033292514e-09
    ...103  ....49  -3.46901176815e-08
    ...103  ....52  -2.84744723186e-06
    ...103  ....53  -0.843702348879
    ...103  ....55  7.55562760014e-07
    ...104  ....34  1.474395555
    ...104  ....35  0.00109042916842
    ...104  ....40  2.08717168734e-05
    ...104  ....51  0.48846998216
    ...105  ....35  0.00141497248207
    ...105  ....40  2.70837445338e-05
    ...105  ....46  1.44288978598e-06
    ...105  ....51  0.831931801774
    ...106  .Z....  -33275.7621466
    ...106  ....06  9736.26820484
    ...106  ....30  0.000316365347912
    ...106  ....49  0.00102426405515
    ...106  ....52  -0.221862012495
    ...106  ....53  -65738.0052471
    ...107  .Z....  -0.0202899983469
    ...107  ....06  0.0124256919621
    ...107  ....38  0.000297109456166
    ...108  ....06  0.000958639473506
    ...108  ....50  -4.02966118513e-12
    ...109  .Z....  4280034.96653
    ...109  ....31  -3.22669601004
    ...109  ....42  52758.7706209
    ...110  .Z....  0.0067362339526
    ...110  ....32  -0.787471075775
    ...110  ....43  0.0321317782329
    ...110  ....56  7.53492010384
    ...111  .Z....  110.280359565
    ...111  ....33  -45.1499294335
    ...111  ....44  0.0556435617759
    ...111  ....56  123355.825256
    ...112  .Z....  324.576995426
    ...112  ....07  0.000130856637789
    ...112  ....31  -0.00019269579933
    ...113  .Z....  12376.6685136
    ...113  ....07  0.00498978440104
    ...113  ....32  -1139370.53706
    ...114  .Z....  498.320378266
    ...114  ....07  0.000200903114393
    ...114  ....33  -160.66131845
    ...115  .Z....  79676498.2051
    ...115  ....08  0.81260081346
    ...115  ....31  -44.5379989184
    ...115  ....42  -204970.325087
    ...116  .Z....  454958.356229
    ...116  ....08  0.004640007263
    ...116  ....32  -39434725.4821
    ...116  ....43  -452900.339644
    ...117  .Z....  3522.17141689
    ...117  ....08  3.59217513694e-05
    ...117  ....33  -1069.20041266
    ...117  ....44  -0.370886168928
    ...118  .Z....  11724.0679272
    ...118  ....09  0.0509211326663
    ...118  ....31  -0.00534296220527
    ...118  ....42  -124.190448653
    ...119  .Z....  550.085990844
    ...119  ....09  0.00238918794155
    ...119  ....32  -38872.374923
    ...119  ....43  -2254.81390152
    ...120  .Z....  173362192.98
    ...120  ....09  752.963841803
    ...120  ....33  -42904844.8272
    ...120  ....44  -75168.1151243
    ...121  .Z....  0.253197778559
    ...121  ....11  0.00292887416803
    ...121  ....31  -5.82977000056e-08
    ...121  ....42  -0.00703953568326
    ...122  .Z....  89592.731291
    ...122  ....11  1036.36705589
    ...122  ....32  -3198681.66125
    ...122  ....43  -963889.277293
    ...123  .Z....  2213.64144612
    ...123  ....11  25.6063749285
    ...123  ....33  -276.787819895
    ...123  ....44  -2.51918927873
    ...124  .Z....  0.00159628882439
    ...124  ....12  2.01784883536e-10
    ...124  ....31  -4.226694352e-11
    ...124  ....42  -7.02212142539e-05
    ...125  .Z....  1.78965781713
    ...125  ....12  2.26228417241e-07
    ...125  ....32  -7.3479481992
    ...125  ....43  -30.4647144918
    ...126  .Z....  66830272.0683
    ...126  ....12  8.44793151465
    ...126  ....33  -960972.073523
    ...126  ....44  -120337.085559
    ...127  .Z....  1281224.42224
    ...127  ....13  403.968757748
    ...127  ....31  -0.178912633145
    ...127  ....42  -44525.9577341
    ...128  .Z....  0.000702781048557
    ...128  ....13  2.21586150112e-07
    ...128  ....32  -0.015217473516
    ...128  ....43  -0.00945101280915
    ...129  .Z....  1.78798090029
    ...129  ....13  0.000563748560071
    ...129  ....33  -0.135589744304
    ...129  ....44  -0.00254343319273
    ...130  .Z....  -0.0024781408843
    ...130  ....14  0.000141004109922
    ...130  ....30  2.35606294931e-11
    ...130  ....49  -6.78043240989e-11
    ...130  ....52  -1.65226966527e-08
    ...130  ....53  -0.00489569668569
    ...131  .Z....  -7678759.50747
    ...131  ....14  914473.023713
    ...131  ....38  112441.214745
    ...132  .Z....  0.0106797632311
    ...132  ....17  8.58306769098
    ...132  ....31  1.4530274739e-09
    ...132  ....42  -0.000615722343477
    ...133  ....14  0.000526053274395
    ...133  ....50  -1.13710793812e-11
    ...134  .Z....  306726031.176
    ...134  ....17  246508300905
    ...134  ....32  6470972446.17
    ...134  ....43  -6842962706.48
    ...135  .Z....  113.393737443
    ...135  ....17  91131.8072462
    ...135  ....33  8.37817521756
    ...135  ....44  -0.267597318441
    ...136  .Z....  3.34200708983
    ...136  ....15  0.000783667918241
    ...136  ....31  2.80365997547e-07
    ...136  ....42  -0.177736751717
    ...137  .Z....  0.00195637476767
    ...137  ....15  4.58750714847e-07
    ...137  ....32  0.0254493527625
    ...137  ....43  -0.0402617060427
    ...138  .Z....  23.9020301403
    ...138  ....15  0.00560479188054
    ...138  ....33  1.08893243033
    ...138  ....44  -0.0520324241514
    ...139  .Z....  12.318823498
    ...139  ....16  0.978771868292
    ...139  ....31  -1.04587080528e-06
    ...139  ....42  -0.480121588202
    ...140  .Z....  954.706770114
    ...140  ....16  75.8546568354
    ...140  ....32  -12568.5600248
    ...140  ....43  -14398.6658254
    ...141  .Z....  0.000601902494778
    ...141  ....16  4.78231731658e-05
    ...141  ....33  -2.77512863216e-05
    ...141  ....44  -9.60235024646e-07
    ...142  ....10  -0.00462115719604
    ...143  ....02  1.26046859615e-06
    ...143  ....03  1.53806357587
    ...143  ....10  0.946316062086
    ...143  ....28  0.0344723876088
    ...143  ....34  2.59193859882
    ...143  ....54  7.90083621722
    ...144  ....02  0.000737815791062
    ...144  ....03  604.002841465
    ...144  ....10  703.636340796
    ...144  ....28  20.0967316837
    ...144  ....46  0.00114874182316
    ...144  ....54  4602.30732358
    ...145  .Z....  2.17225275498
    ...145  ....18  0.667449271586
    ...145  ....31  6.96500536952e-07
    ...145  ....42  -0.159132421373
    ...146  .Z....  11727.4091939
    ...146  ....18  3603.37935173
    ...146  ....32  583068.919071
    ...146  ....43  -332445.640399
    ...147  .Z....  1.36289132579
    ...147  ....18  0.418763802031
    ...147  ....33  0.237312434046
    ...147  ....44  -0.00408675817479
    ...148  .Z....  5837707.84207
    ...148  ....01  -28.0310060583
    ...148  ....06  7858926.62752
    ...148  ....14  -2764372.74621
    ...148  ....20  25.9285542026
    ...148  ....28  8186103.02675
    ...148  ....50  -0.0222020796465
    ...148  ....54  1213302638.56
    ...149  .Z....  13877862.187
    ...149  ....01  -75.4544333156
    ...149  ....14  -8995749.00042
    ...149  ....20  61.5843461786
    ...149  ....28  31497675.006
    ...149  ....50  -0.0365760042631
    ...149  ....54  4418540802.14
    ...150  .Z....  0.000205637093707
    ...150  ....01  -1.11805623699e-09
    ...150  ....14  -0.000154965307504
    ...150  ....20  9.12534351137e-10
    ...150  ....28  0.000509319034481
    ...150  ....50  -5.41969873653e-13
    ...150  ....54  0.0780301945415
    ...151  .Z....  0.000658183206773
    ...151  ....26  39.7483758685
    ...151  ....28  0.0375133134391
    ...151  ....50  -4.87494289276e-10
    ...151  ....54  2.03735325059
    ...152  ....28  1206.10274392
    ...152  ....50  -1.65778329141e-05
    ...152  ....54  108080.951774
    ...153  .Z....  3185.62945963
    ...153  ....03  -3444653.80417
    ...153  ....21  25.0871161572
    ...153  ....50  8.74220999202e-05
    ...154  .Z....  1.05575532599e-05
    ...154  ....21  8.31416736701e-08
    ...154  ....37  -3.06015232784e-06
    ...155  .Z....  -0.429146486403
    ...155  ....01  4.54996252642e-08
    ...155  ....14  0.0129575429236
    ...155  ....29  3.1924192037e-09
    ...155  ....55  4.82916302713e-07
    ...156  .Z....  -786.348039328
    ...156  ....14  23.4175544984
    ...156  ....29  5.84964030017e-06
    ...156  ....47  0.113661531372
    ...156  ....55  0.0010112838252
    ...157  .Z....  1099.8220992
    ...157  ....02  0.40381535006
    ...157  ....03  155932.987085
    ...157  ....10  368720.933714
    ...157  ....22  125.628692109
    ...157  ....28  8215.85096239
    ...157  ....34  1037971.70732
    ...157  ....50  7.79269916714e-06
    ...157  ....54  1796350.54178
    ...158  .Z....  719396.736216
    ...158  ....02  264.136759097
    ...158  ....03  81596965.2245
    ...158  ....10  294777269.614
    ...158  ....22  82174.0817393
    ...158  ....28  5337453.38056
    ...158  ....46  514.059447298
    ...158  ....50  0.00510124639272
    ...158  ....54  1157525865.94
    ...159  .Z....  729571.819008
    ...159  ....19  1268.15856569
    ...159  ....28  -4434166.59349
    ...159  ....31  6.70756566312
    ...159  ....34  -37345222.4901
    ...159  ....35  -27412.0041332
    ...159  ....50  0.000883296211229
    ...159  ....54  -378584093.842
    ...159  ....55  -49.4463293011
    ...160  .Z....  145396.755197
    ...160  ....01  -0.0101585863569
    ...160  ....06  -35570.7101285
    ...160  ....19  167.71155357
    ...160  ....27  1018.24757458
    ...160  ....28  -572245.587026
    ...160  ....32  137550150.301
    ...160  ....34  -4938834.50516
    ...160  ....35  -3625.18530729
    ...160  ....50  0.000199557661074
    ...160  ....54  -64875581.6114
    ...160  ....55  -6.53918281972
    ...161  .Z....  0.000130514662339
    ...161  ....01  -1.3018292114e-11
    ...161  ....06  -4.55840880696e-05
    ...161  ....24  0.0087006766752
    ...161  ....27  1.30489065157e-06
    ...161  ....28  -0.00073333630794
    ...161  ....33  0.000617338352122
    ...161  ....34  -0.00632914738646
    ...161  ....35  -4.64569770239e-06
    ...161  ....50  2.55734393958e-13
    ...161  ....54  -0.083138464626
    ...161  ....55  -8.38000378628e-09
    ...162  ....28  -110852125.795
    ...162  ....34  8137177749.48
    ...162  ....54  -28697212883.5
    ...163  ....28  -5019.2808415
    ...163  ....35  1284.60799405
    ...163  ....54  -1674205.05478
    ...164  .Z....  -0.0131533710257
    ...164  ....35  0.00058428537107
    ...164  ....48  4.24688474197e-09
    ...165  ....35  0.0619984076217
    ...165  ....50  -2.66369717872e-09
    ...166  ....28  2865.51152463
    ...166  ....34  217327.278191
    ...166  ....35  30.4308610434
    ...166  ....36  2.12597320682
    ...166  ....37  35.1248465477
    ...166  ....54  656165.155503
    ...167  ....28  4.25173169586
    ...167  ....35  0.0459141584596
    ...167  ....36  0.0032076736363
    ...167  ....37  0.0355545840068
    ...167  ....46  0.000251267555828
    ...167  ....54  973.500889139
    ...168  .Z....  -302.32437313
    ...168  ....06  8.85250269496
    ...168  ....35  1.23730547983
    ...168  ....39  5065.91063979
    ...168  ....55  0.00793343763403
    ...169  .Z....  -5973821.51035
    ...169  ....35  17114.0996991
    ...169  ....39  100100582.815
    ...169  ....46  17.4517596384
    ...169  ....55  113.321848825
    ...170  .Z....  -10223584.3412
    ...170  ....34  39602404.215
    ...170  ....35  29289.0307142
    ...170  ....39  171311906.331
    ...170  ....55  193.938750456
    ...171  .Z....  -6047.16543845
    ...171  ....22  3.09111713346
    ...171  ....28  -96.2631084825
    ...171  ....34  63596.3466589
    ...171  ....41  185491.956391
    ...171  ....50  1.91801285925e-07
    ...171  ....54  -24920.4324873
    ...172  .Z....  -5396717.93487
    ...172  ....41  164548742.704
    ...172  ....46  37.8196708192
    ...173  .Z....  1.10235344715
    ...173  ....22  0.126404008072
    ...173  ....28  -3.93645475611
    ...173  ....34  1191.95262402
    ...173  ....35  0.881540848511
    ...173  ....40  0.0134987372205
    ...173  ....50  7.84542940862e-09
    ...173  ....51  592.344172851
    ...173  ....54  -1070.50197772
    ...174  .Z....  7312127.63005
    ...174  ....22  838462.693037
    ...174  ....28  -26111280.0627
    ...174  ....35  5847434.15289
    ...174  ....40  89539.7838651
    ...174  ....46  5962.80360241
    ...174  ....50  0.0520402791834
    ...174  ....51  4583991554.32
    ...174  ....54  -7195121599.27
    ...175  .Z....  526.383748994
    ...175  ....19  0.980850386227
    ...175  ....28  -2727.85192888
    ...175  ....35  -26.6998597282
    ...175  ....42  423.168416119
    ...175  ....46  -0.0273794330287
    ...175  ....50  6.85092565189e-07
    ...175  ....54  -309695.088201
    ...175  ....55  -0.091900362873
    ...176  .Z....  17613442.5758
    ...176  ....01  -0.677489625656
    ...176  ....06  -3601631.18715
    ...176  ....19  21982.0693953
    ...176  ....27  97911.9441971
    ...176  ....28  -59749047.9282
    ...176  ....35  -598376.855054
    ...176  ....43  3669858352.87
    ...176  ....46  -613.606932607
    ...176  ....50  0.023209188867
    ...176  ....54  -7932171063.92
    ...176  ....55  -2059.60071229
    ...177  .Z....  0.000101151786942
    ...177  ....01  -5.5767241354e-12
    ...177  ....06  -2.96466584986e-05
    ...177  ....24  0.00683312891616
    ...177  ....27  8.05957584691e-07
    ...177  ....28  -0.000491821490736
    ...177  ....35  -4.92551106802e-06
    ...177  ....44  3.19539803422e-06
    ...177  ....46  -5.05087673837e-09
    ...177  ....50  1.91045351569e-13
    ...177  ....54  -0.0652932947503
    ...177  ....55  -1.69535068384e-08
    ...178  .Z....  -68954743.3579
    ...178  ....05  112511.449701
    ...178  ....45  7989680.56345
    ...178  ....47  8084.37715858
    ...178  ....55  1159.04335939
    ...179  .Z....  -8882.99459092
    ...179  ....05  4.18121729597
    ...179  ....45  1053.76515233
    ...179  ....47  0.533127379772
    ...179  ....55  0.192754880512
    ...180  .Z....  -615145.219391
    ...180  ....05  209.496698807
    ...180  ....45  74797.305561
    ...180  ....55  14.7532268117
    ...181  ....28  -0.0432758703453
    ...181  ....46  2.39576491379e-06
    ...181  ....54  -11.4186307835
    ...182  .Z....  -7257.01993462
    ...182  ....30  6.89952532509e-05
    ...182  ....47  6.63783398501
    ...182  ....49  -0.000626702042174
    ...182  ....52  -0.0483852793609
    ...182  ....53  -14336.621726
    ...182  ....55  0.0128389087632
    ...183  .Z....  5.26932628702
    ...183  ....02  1.13039131068e-05
    ...183  ....03  6.98399577425
    ...183  ....10  10.3215229306
    ...184  .Z....  0.0295043264781
    ...184  ....28  -0.00389826922015
    ...184  ....54  -0.84421572164
    ...185  .Z....  0.000986118253195
    ...185  ....28  -0.000230859289031
    ...185  ....54  -0.0241356499506
    ...186  .Z....  134150688.578
    ...186  ....36  5762.20905358
    ...186  ....37  96406.9969372
    ...187  .Z....  236086.457267
    ...187  ....40  20.3744443878
    ...187  ....51  715248.14276
    ...188  .Z....  0.288576379219
    ...188  ....49  -2.99857542333e-07
    ...188  ....52  8.65821230073e-05
    ...189  .Z....  1.24114959743
    ...189  ....49  -5.49563546869e-07
    ...189  ....53  73.5586746795
    ...190  .Z....  -730.455128233
    ...190  ....30  6.94471518818e-06
    ...190  ....49  5.6835064187e-05
    ...190  ....52  -0.00487021887201
    ...190  ....53  -1443.05223847
    ...190  ....55  0.0161537498028
    ...191  .Z....  607724.394271
    ...191  ....05  -37753.3810596
    ...191  ....23  326557718.547
    ...191  ....28  -36268.241059
    ...191  ....47  -1661.47528231
    ...191  ....50  -0.00348953843589
    ...191  ....54  -12097444.7189
    ...191  ....55  227.807857883
    ...192  .Z....  -0.0232913673366
    ...192  ....38  0.000341058947587
    ...192  ....55  1.07807468528e-06
    ...193  .Z....  32314146.8536
    ...193  ....55  17161.6711469
    ...194  .Z....  -258569017.62
    ...194  ....48  83.4852764004
    ...194  ....55  8873.00672943
    ...195  .Z....  0.0134600212852
    ...195  ....05  -0.00543028527974
    ...195  ....25  5.67127041604e-06
    ...195  ....28  -0.00528962948417
    ...195  ....47  -0.000238330997211
    ...195  ....50  -2.98344247712e-10
    ...195  ....54  -1.76165692173
    ...195  ....55  2.92110912215e-05
    ...196  ....50  -0.000113689893608
    ...196  ....55  2.04420255983
RHS
    RHS  ....02  0.200853528272
    RHS  ....03  133885.869788
    RHS  ....04  0.000296624598261
    RHS  ....07  0.0194194370452
    RHS  ....08  0.000229471910974
    RHS  ....09  0.0259164652155
    RHS  ....10  183320.451754
    RHS  ....11  1117.42388201
    RHS  ....12  0.0167491600894
    RHS  ....13  46.6327196341
    RHS  ....15  3.67094411541
    RHS  ....16  2378.8334772
    RHS  ....17  54492436.6886
    RHS  ....18  5348.8052406
    RHS  ....19  20.6751204621
    RHS  ....20  0.00732957736661
    RHS  ....21  0.212627408438
    RHS  ....22  27.9678385046
    RHS  ....23  668108.01604
    RHS  ....24  891702.503933
    RHS  ....26  1971163.91758
    RHS  ....27  129.812532583
    RHS  ....28  -110964.147047
    RHS  ....29  5.99583116653e-05
    RHS  ....30  0.000163517445364
    RHS  ....36  3.25070251818
    RHS  ....37  54.3872089333
    RHS  ....38  206.275102421
    RHS  ....39  425321.216718
    RHS  ....40  8.13730013813
    RHS  ....41  310606.939653
    RHS  ....45  2696.44467003
    RHS  ....48  0.012269737917
    RHS  ....50  7.26422968829e-06
    RHS  ....51  286297.4449
    RHS  ....54  -12961884.1803
    RHS  ....56  51704579.9375
ENDATA
