NAME          ADLITTLE_RESC
ROWS
 N  .Z....
 L  ....01
 E  ....02
 L  ....03
 L  ....04
 L  ....05
 L  ....06
 L  ....07
 L  ....08
 L  ....09
 E  ....10
 L  ....11
 L  ....12
 L  ....13
 L  ....14
 L  ....15
 L  ....16
 L  ....17
 L  ....18
 L  ....19
 L  ....20
 L  ....21
 L  ....22
 L  ....23
 L  ....24
 E  ....25
 L  ....26
 L  ....27
 E  ....28
 L  ....29
 L  ....30
 E  ....31
 E  ....32
 E  ....33
 L  ....34
 L  ....35
 E  ....36
 L  ....37
 L  ....38
 L  ....39
 E  ....40
 L  ....41
 E  ....42
 E  ....43
 E  ....44
 L  ....45
 L  ....46
 L  ....47
 L  ....48
 E  ....49
 E  ....50
 G  ....51
 L  ....52
 L  ....53
 E  ....54
 L  ....55
 L  ....56
COLUMNS
    ...100  .Z....  -11701.6178314
    ...100  ....01  0.0670186057874
    ...100  ....04  0.0127018716301
    ...100  ....05  2.58849070759
    ...100  ....55  0.227560808118
    ...101  .Z....  -129173.589798
    ...101  ....01  0.932810378677
    ...101  ....04  0.140215342805
    ...101  ....05  7.85006125156
    ...101  ....55  2.51203268688
    ...102  .Z....  918.320215209
    ...102  ....01  -0.0103000410694
    ...103  .Z....  -28.4106569365
    ...103  ....05  0.0551328514937
    ...103  ....30  6.37207417184e-05
    ...103  ....49  -0.000574069784934
    ...103  ....52  -0.000345821895979
    ...103  ....53  -0.23054988176
    ...103  ....55  0.000245855691008
    ...104  ....34  1.10289452482
    ...104  ....35  0.0138139460138
    ...104  ....40  0.00456855741711
    ...104  ....51  2.79562510265
    ...105  ....35  0.0157359519688
    ...105  ....40  0.00520420450538
    ...105  ....46  0.00109104723703
    ...105  ....51  4.17978083603
    ...106  .Z....  -7930.39661411
    ...106  ....06  98.6725301431
    ...106  ....30  0.017786662079
    ...106  ....49  0.0607235588428
    ...106  ....52  -0.0965308475296
    ...106  ....53  -64.3544429745
    ...107  .Z....  -4.28040518026
    ...107  ....06  0.111470587879
    ...107  ....38  0.0172368632925
    ...108  ....06  0.0309619035834
    ...108  ....50  -1.79547457462e-06
    ...109  .Z....  42999.7105286
    ...109  ....31  -1.99219378885
    ...109  ....42  110.156784824
    ...110  .Z....  1.70588776522
    ...110  ....32  -0.984169407776
    ...110  ....43  0.0859669063859
    ...110  ....56  2.74498089316
    ...111  .Z....  218.268447862
    ...111  ....33  -7.45214151793
    ...111  ....44  0.113128330707
    ...111  ....56  351.220479552
    ...112  .Z....  380.475150253
    ...112  ....07  0.0114392586206
    ...112  ....31  -0.0138814912502
    ...113  .Z....  2349.46678143
    ...113  ....07  0.0706384059917
    ...113  ....32  -1067.41301147
    ...114  .Z....  471.434925209
    ...114  ....07  0.014174029575
    ...114  ....33  -12.6752245917
    ...115  .Z....  189352.645063
    ...115  ....08  0.901443738378
    ...115  ....31  -6.50469822302
    ...115  ....42  -101.234955694
    ...116  .Z....  14308.4331883
    ...116  ....08  0.0681175987759
    ...116  ....32  -6120.70169245
    ...116  ....43  -150.482613555
    ...117  .Z....  1258.95875135
    ...117  ....08  0.00599347573361
    ...117  ....33  -31.8706823275
    ...117  ....44  -0.136177488765
    ...118  .Z....  2319.77308774
    ...118  ....09  0.225657113042
    ...118  ....31  -0.0649687628185
    ...118  ....42  -5.10685756774
    ...119  .Z....  502.483303003
    ...119  ....09  0.048879320183
    ...119  ....32  -175.240338362
    ...119  ....43  -21.7603060484
    ...120  .Z....  282087.303113
    ...120  ....09  27.4401866211
    ...120  ....33  -5821.92643491
    ...120  ....44  -125.639580452
    ...121  .Z....  11.058685593
    ...121  ....11  0.0541190739761
    ...121  ....31  -0.000156476943996
    ...121  ....42  -0.0638978144876
    ...122  .Z....  6578.2436268
    ...122  ....11  32.1926553097
    ...122  ....32  -1159.0713083
    ...122  ....43  -747.700328226
    ...123  .Z....  1034.01586955
    ...123  ....11  5.06027419499
    ...123  ....33  -10.7819703374
    ...123  ....44  -1.20877201393
    ...124  .Z....  0.893389283679
    ...124  ....12  1.42051006169e-05
    ...124  ....31  -1.45373559357e-06
    ...124  ....42  -0.00816762839147
    ...125  .Z....  29.9136909887
    ...125  ....12  0.000475634751927
    ...125  ....32  -0.606133161904
    ...125  ....43  -5.37972850311
    ...126  .Z....  182798.074482
    ...126  ....12  2.90653255868
    ...126  ....33  -219.199917144
    ...126  ....44  -338.112749362
    ...127  .Z....  25132.521564
    ...127  ....13  20.0989740471
    ...127  ....31  -0.215678660552
    ...127  ....42  -181.519169024
    ...128  .Z....  0.588617921014
    ...128  ....13  0.000470729380974
    ...128  ....32  -0.0629010581324
    ...128  ....43  -0.0836286403021
    ...129  .Z....  29.6896376509
    ...129  ....13  0.0237433898184
    ...129  ....33  -0.187758710901
    ...129  ....44  -0.0433836439528
    ...130  .Z....  -2.16418258734
    ...130  ....14  0.0118745151447
    ...130  ....30  4.8539292839e-06
    ...130  ....49  -1.47300318098e-05
    ...130  ....52  -2.63429926055e-05
    ...130  ....53  -0.017562143696
    ...131  .Z....  -83270.1617342
    ...131  ....14  956.280828896
    ...131  ....38  335.32255329
    ...132  .Z....  2.32464194983
    ...132  ....17  2.92968730259
    ...132  ....31  1.94367472385e-05
    ...132  ....42  -0.0278533687869
    ...133  ....14  0.02293585129
    ...133  ....50  -3.01610071201e-06
    ...134  .Z....  393958.591447
    ...134  ....17  496496.023051
    ...134  ....32  41017.7136857
    ...134  ....43  -92855.4414677
    ...135  .Z....  239.535448622
    ...135  ....17  301.880451911
    ...135  ....33  1.475915159
    ...135  ....44  -0.580665670791
    ...136  .Z....  41.081791348
    ...136  ....15  0.0279940693405
    ...136  ....31  0.00021179839378
    ...136  ....42  -0.454064568087
    ...137  .Z....  0.993966426835
    ...137  ....15  0.000677311386917
    ...137  ....32  0.0638114131014
    ...137  ....43  -0.216110108532
    ...138  .Z....  109.865942042
    ...138  ....15  0.0748651579878
    ...138  ....33  0.417407700999
    ...138  ....44  -0.245677862282
    ...139  .Z....  78.4033986859
    ...139  ....16  0.989328999015
    ...139  ....31  -0.000409071300442
    ...139  ....42  -0.635060732599
    ...140  .Z....  690.216399607
    ...140  ....16  8.70945789561
    ...140  ....32  -44.8438357411
    ...140  ....43  -109.976721597
    ...141  .Z....  0.548041371517
    ...141  ....16  0.00691543007815
    ...141  ....33  -0.0021071795869
    ...141  ....44  -0.000898107688812
    ...142  ....10  -0.0679790938159
    ...143  ....02  0.00112270592594
    ...143  ....03  1.10230223847
    ...143  ....10  5.91723704926
    ...143  ....28  0.130496587997
    ...143  ....34  1.14521654328
    ...143  ....54  4.23891469113
    ...144  ....02  0.0271627647905
    ...144  ....03  17.891939693
    ...144  ....10  181.854084412
    ...144  ....28  3.14445416382
    ...144  ....46  0.0241570040809
    ...144  ....54  102.058522107
    ...145  .Z....  33.3495638735
    ...145  ....18  0.816975686044
    ...145  ....31  0.000657137986202
    ...145  ....42  -0.507734697085
    ...146  .Z....  2450.39456155
    ...146  ....18  60.0281546587
    ...146  ....32  601.250970747
    ...146  ....43  -733.867792894
    ...147  .Z....  26.4159110917
    ...147  ....18  0.647119619569
    ...147  ....33  0.383580120846
    ...147  ....44  -0.0813667514601
    ...148  .Z....  20344.3723423
    ...148  ....01  -2.63128457154
    ...148  ....06  1164.66765041
    ...148  ....14  -928.997939377
    ...148  ....20  6.79930968138
    ...148  ....28  1962.12238494
    ...148  ....50  -0.0453911113677
    ...148  ....54  41216.570568
    ...149  .Z....  23501.8917333
    ...149  ....01  -3.44185212212
    ...149  ....14  -1469.04056622
    ...149  ....20  7.84756944401
    ...149  ....28  3668.64505371
    ...149  ....50  -0.0363372227048
    ...149  ....54  72939.0147137
    ...150  .Z....  0.0904674324249
    ...150  ....01  -1.3248955778e-05
    ...150  ....14  -0.00657417859987
    ...150  ....20  3.02081835127e-05
    ...150  ....28  0.0154108878972
    ...150  ....50  -1.39875346072e-07
    ...150  ....54  0.334621829179
    ...151  .Z....  0.0366427856722
    ...151  ....26  6.30463130314
    ...151  ....28  0.143639557196
    ...151  ....50  -1.59215900721e-05
    ...151  ....54  1.10562740123
    ...152  ....28  34.7289899641
    ...152  ....50  -0.00407158850009
    ...152  ....54  441.073364865
    ...153  .Z....  75.7240584447
    ...153  ....03  -1066.17810678
    ...153  ....21  5.00870403969
    ...153  ....50  0.00121908806025
    ...154  .Z....  0.00435931139835
    ...154  ....21  0.000288342979228
    ...154  ....37  -0.00100491306499
    ...155  .Z....  -33.4033061934
    ...155  ....01  9.53935273111e-05
    ...155  ....14  0.097257423029
    ...155  ....29  5.6501497358e-05
    ...155  ....55  0.000183859025315
    ...156  .Z....  -1429.86184726
    ...156  ....14  4.10617087307
    ...156  ....29  0.00241860296456
    ...156  ....47  0.150772365752
    ...156  ....55  0.00899459315456
    ...157  .Z....  106.949286261
    ...157  ....02  0.635464672551
    ...157  ....03  197.441755389
    ...157  ....10  4073.38213493
    ...157  ....22  10.4845174231
    ...157  ....28  54.9483869525
    ...157  ....34  810.257431241
    ...157  ....50  0.000444547917416
    ...157  ....54  1702.73596733
    ...158  .Z....  2735.27440244
    ...158  ....02  16.2522847347
    ...158  ....03  4039.72685276
    ...158  ....10  127329.29682
    ...158  ....22  268.146082429
    ...158  ....28  1395.76877881
    ...158  ....46  18.0673116161
    ...158  ....50  0.0113784723688
    ...158  ....54  42900.6541541
    ...159  .Z....  4583.8486436
    ...159  ....19  35.611214044
    ...159  ....28  -1916.11323763
    ...159  ....31  2.58989684411
    ...159  ....34  -1883.55943271
    ...159  ....35  -23.4145271715
    ...159  ....50  0.00325569570672
    ...159  ....54  -23185.9744944
    ...159  ....55  -1.5195866472
    ...160  .Z....  2512.01496325
    ...160  ....01  -0.00472746126215
    ...160  ....06  -26.1334581421
    ...160  ....19  12.950349554
    ...160  ....27  26.2942979206
    ...160  ....28  -679.981201444
    ...160  ....32  11728.1776206
    ...160  ....34  -684.973925044
    ...160  ....35  -8.51491081256
    ...160  ....50  0.00202260526352
    ...160  ....54  -10925.7068497
    ...160  ....55  -0.552611832737
    ...161  .Z....  0.0629892509489
    ...161  ....01  -1.6923428332e-07
    ...161  ....06  -0.000935528989896
    ...161  ....24  0.0932774178202
    ...161  ....27  0.000941286753552
    ...161  ....28  -0.0243420569553
    ...161  ....33  0.024846294535
    ...161  ....34  -0.0245207871349
    ...161  ....35  -0.000304817903096
    ...161  ....50  7.24054906491e-08
    ...161  ....54  -0.391119898384
    ...161  ....55  -1.97824714538e-05
    ...162  ....28  -10528.6336148
    ...162  ....34  90206.3065948
    ...162  ....54  -386297.174458
    ...163  ....28  -70.8468830754
    ...163  ....35  35.84142846
    ...163  ....54  -3349.20496044
    ...164  .Z....  -4.00259989373
    ...164  ....35  0.0241719955955
    ...164  ....48  6.51681267336e-05
    ...165  ....35  0.248994794367
    ...165  ....50  -4.6162297852e-05
    ...166  ....28  37.1641837644
    ...166  ....34  328.981738914
    ...166  ....35  0.78013923172
    ...166  ....36  1.45807174269
    ...166  ....37  5.26769672368
    ...166  ....54  1206.11697184
    ...167  ....28  1.41961995754
    ...167  ....35  0.0303031874428
    ...167  ....36  0.056636327885
    ...167  ....37  0.137273193026
    ...167  ....46  0.011275698792
    ...167  ....54  46.0676886584
    ...168  .Z....  -632.19682163
    ...168  ....06  0.787194504965
    ...168  ....35  0.351753533008
    ...168  ....39  71.1752108518
    ...168  ....55  0.0811464924457
    ...169  .Z....  -88867.2720223
    ...169  ....35  34.6119484995
    ...169  ....39  10005.0278768
    ...169  ....46  2.3998084675
    ...169  ....55  8.24579343027
    ...170  .Z....  -116256.520244
    ...170  ....34  3615.07861477
    ...170  ....35  45.2794892859
    ...170  ....39  13088.6174339
    ...170  ....55  10.7871799036
    ...171  .Z....  -3168.32678678
    ...171  ....22  1.38994539764
    ...171  ....28  -3.4688454218
    ...171  ....34  267.480634797
    ...171  ....41  430.68777135
    ...171  ....50  5.89528565971e-05
    ...171  ....54  -127.272468023
    ...172  .Z....  -94934.2875426
    ...172  ....41  12827.6553861
    ...172  ....46  6.149769981
    ...173  .Z....  4.0391621678
    ...173  ....22  0.397498440362
    ...173  ....28  -0.992025044556
    ...173  ....34  35.0599649674
    ...173  ....35  0.439132167589
    ...173  ....40  0.116184066121
    ...173  ....50  1.68640687873e-05
    ...173  ....51  133.305383183
    ...173  ....54  -38.2347866584
    ...174  .Z....  10402.8596513
    ...174  ....22  1023.75698596
    ...174  ....28  -2554.95988534
    ...174  ....35  1130.98462454
    ...174  ....40  299.231990043
    ...174  ....46  78.4164601023
    ...174  ....50  0.0434333986743
    ...174  ....51  400549.253402
    ...174  ....54  -99781.007777
    ...175  .Z....  123.125350643
    ...175  ....19  1.02541289929
    ...175  ....28  -43.8846608941
    ...175  ....35  -0.849056071565
    ...175  ....42  20.5710577297
    ...175  ....46  -0.0591993870548
    ...175  ....50  9.40090106902e-05
    ...175  ....54  -706.122575764
    ...175  ....55  -0.105145678245
    ...176  .Z....  27520.5020078
    ...176  ....01  -0.0285129365515
    ...176  ....06  -239.303021033
    ...176  ....19  153.508235583
    ...176  ....27  228.659087292
    ...176  ....28  -6420.81327173
    ...176  ....35  -127.106943502
    ...176  ....43  60579.3558307
    ...176  ....46  -8.86237481569
    ...176  ....50  0.0212739085009
    ...176  ....54  -120810.573865
    ...176  ....55  -15.7407104569
    ...177  .Z....  0.0550867825186
    ...177  ....01  -8.18050668509e-08
    ...177  ....06  -0.000686572552705
    ...177  ....24  0.0826627420073
    ...177  ....27  0.00065603456481
    ...177  ....28  -0.0184216402258
    ...177  ....35  -0.00036467629322
    ...177  ....44  0.00178756763067
    ...177  ....46  -2.54266046202e-05
    ...177  ....50  6.10359267611e-08
    ...177  ....54  -0.346611688119
    ...177  ....55  -4.51608998212e-05
    ...178  .Z....  -348664.900069
    ...178  ....05  142.704493257
    ...178  ....45  2826.60230019
    ...178  ....47  29.8208230511
    ...178  ....55  28.6663869681
    ...179  .Z....  -3911.07615441
    ...179  ....05  0.461781422422
    ...179  ....45  32.4617490646
    ...179  ....47  0.171236695505
    ...179  ....55  0.415117890698
    ...180  .Z....  -32147.2233416
    ...180  ....05  2.74624856069
    ...180  ....45  273.490960657
    ...180  ....55  3.7712213733
    ...181  ....28  -0.208028532527
    ...181  ....46  0.00154782586675
    ...181  ....54  -7.77937935521
    ...182  .Z....  -3703.48048144
    ...182  ....30  0.00830633813728
    ...182  ....47  2.47119551355
    ...182  ....49  -0.0795593528503
    ...182  ....52  -0.0450797264095
    ...182  ....53  -30.0534052769
    ...182  ....55  0.0320485990498
    ...183  .Z....  96.8473065754
    ...183  ....02  0.00336212925195
    ...183  ....03  1.67140608761
    ...183  ....10  21.5515320077
    ...184  .Z....  6.87072939105
    ...184  ....28  -0.0624361211171
    ...184  ....54  -1.91633462348
    ...185  .Z....  0.943644415357
    ...185  ....28  -0.0151940543974
    ...185  ....54  -0.225132993798
    ...186  .Z....  485906.587624
    ...186  ....36  75.9092158672
    ...186  ....37  277.714957375
    ...187  .Z....  22266.1527943
    ...187  ....40  4.51380597587
    ...187  ....51  4143.18179981
    ...188  .Z....  16.9875359961
    ...188  ....49  -0.00439099532817
    ...188  ....52  0.0093049515317
    ...189  .Z....  35.2299531285
    ...189  ....49  -0.0038804691964
    ...189  ....53  8.57663539388
    ...190  .Z....  -1174.97242196
    ...190  ....30  0.00263528275299
    ...190  ....49  0.0227420114348
    ...190  ....52  -0.0143020695224
    ...190  ....53  -9.53479370641
    ...190  ....55  0.127097402817
    ...191  .Z....  7481.40472855
    ...191  ....05  -116.581375792
    ...191  ....23  18070.908072
    ...191  ....28  -30.7078860805
    ...191  ....47  -14.9210484829
    ...191  ....50  -0.025201110994
    ...191  ....54  -1451.68001641
    ...191  ....55  13.7174812051
    ...192  .Z....  -4.58607726766
    ...192  ....38  0.0184677813391
    ...192  ....55  0.00103830375386
    ...193  .Z....  50429.3898176
    ...193  ....55  131.002561604
    ...194  .Z....  -561192.53689
    ...194  ....48  9.13702776621
    ...194  ....55  94.1966386313
    ...195  .Z....  0.458231744916
    ...195  ....05  -0.0463723297967
    ...195  ....25  0.00238144292731
    ...195  ....28  -0.0123854452904
    ...195  ....47  -0.00591900807484
    ...195  ....50  -5.95843649607e-06
    ...195  ....54  -0.58460366302
    ...195  ....55  0.00486425573849
    ...196  ....50  -0.00953687133636
    ...196  ....55  1.42975611901
RHS
    RHS  ....02  3.25036853097
    RHS  ....03  1743.33279789
    RHS  ....04  0.0833127577224
    RHS  ....07  1.44820551058
    RHS  ....08  0.10711487081
    RHS  ....09  0.580442975495
    RHS  ....10  20826.3340233
    RHS  ....11  472.741765027
    RHS  ....12  2.1067812947
    RHS  ....13  118.278552114
    RHS  ....15  10.6676739535
    RHS  ....16  377.796252803
    RHS  ....17  85451.6618696
    RHS  ....18  426.449736992
    RHS  ....19  92.4057614591
    RHS  ....20  0.551522856022
    RHS  ....21  1.78589224943
    RHS  ....22  24.002863854
    RHS  ....23  3003.2412851
    RHS  ....24  19807.8040613
    RHS  ....26  5615.92580803
    RHS  ....27  194.024829466
    RHS  ....28  -7631.84648595
    RHS  ....29  0.0136334429313
    RHS  ....30  0.0385747164968
    RHS  ....36  11.8228680227
    RHS  ....37  43.2541326038
    RHS  ....38  56.7264629407
    RHS  ....39  2857.65067162
    RHS  ....40  19.1145174201
    RHS  ....41  1376.48186762
    RHS  ....45  188.661256342
    RHS  ....48  0.61872111893
    RHS  ....50  0.00426152252378
    RHS  ....51  17584.1189854
    RHS  ....54  -126348.156126
    RHS  ....56  74380.0380029
ENDATA
