NAME          AFIRO_RESC
ROWS
 E  R09
 E  R10
 L  X05
 L  X21
 E  R12
 E  R13
 L  X17
 L  X18
 L  X19
 L  X20
 E  R19
 E  R20
 L  X27
 L  X44
 E  R22
 E  R23
 L  X40
 L  X41
 L  X42
 L  X43
 L  X45
 L  X46
 L  X47
 L  X48
 L  X49
 L  X50
 L  X51
 N  COST
COLUMNS
    X01  X48  10.5763768934
    X01  R09  -0.0539854806606
    X01  R10  -24.515190225
    X01  X05  0.000335973404802
    X02  X21  -4.52698166435
    X02  R09  0.0108353214712
    X02  COST  -0.00368105277532
    X03  X46  -31.7691084504
    X03  R09  777.109516725
    X04  X50  27.87091058
    X04  R10  629.786999294
    X06  X49  0.87842225949
    X06  R12  -0.000368283606043
    X06  R13  -0.0018216218794
    X06  X17  0.458573799449
    X07  X49  1014.90649716
    X07  R12  -0.409192104524
    X07  R13  -2.02396543926
    X07  X18  1.57084506304
    X08  X49  8425.31574936
    X08  R12  -3.39693626201
    X08  R13  -15.2169850145
    X08  X19  90.7111790957
    X09  X49  914.493385042
    X09  R12  -0.354004284561
    X09  R13  -1.42061681678
    X09  X20  0.00697227464018
    X10  X45  23967.444851
    X10  X17  -29512.2140181
    X11  X45  0.131043575764
    X11  X18  -0.000492892350587
    X12  X45  113.600462084
    X12  X19  -2.94508413091
    X13  X45  44.0180549161
    X13  X20  -0.000834391702723
    X14  X21  1.62975451701
    X14  R12  0.000175827251347
    X14  COST  -0.000757264247729
    X15  X47  -5.74268323581
    X15  R12  0.523549473155
    X16  X51  230.75874278
    X16  R13  45.2642912666
    X22  X46  0.0189463324897
    X22  R19  -119.873934695
    X22  R20  -2.63011321578
    X22  X27  0.343586750135
    X23  X44  -1.95504566998
    X23  R19  1.20687791051
    X23  COST  -0.021814031544
    X24  X48  -83890.4115558
    X24  R19  3633.85654265
    X25  X45  -36.2379252579
    X25  R19  37.8489591777
    X26  X50  25.9461516093
    X26  R20  1.96876185431
    X28  X47  2.92923079174
    X28  R22  -0.935015214078
    X28  R23  17.344771511
    X28  X40  0.210102601405
    X29  X47  0.000679362885016
    X29  R22  -0.000218861638405
    X29  R23  0.00405993940366
    X29  X41  0.00202399825339
    X30  X47  7.28332880875
    X30  R22  -2.12810914255
    X30  R23  43.525889142
    X30  X42  1.37559870649
    X31  X47  1.09711223994
    X31  R22  -0.306967315233
    X31  R23  6.61772586613
    X31  X43  0.471630061087
    X32  X45  3676.30946756
    X32  X40  -0.336381290839
    X33  X45  0.995503731219
    X33  X41  -0.00370148055977
    X34  X45  4659.74829421
    X34  X42  -1.08371830949
    X35  X45  1.01830040689
    X35  X43  -0.000527015755566
    X36  X44  0.232282215908
    X36  R23  -0.00162294215542
    X36  COST  -0.00148100642141
    X37  X49  -79671.8694454
    X37  R23  71.1785575382
    X38  X51  260.053144993
    X38  R22  9.70219396679
    X39  R23  95.5454291382
    X39  COST  1816.4463638
RHS
    RHS  X50  6919.92421914
    RHS  X51  530.252088817
    RHS  X05  0.58620249602
    RHS  X17  7401.25810901
    RHS  X27  47.5729741496
    RHS  R23  23.1440848784
    RHS  X40  3.18581232298
ENDATA
