NAME          AFIRO_RESC
ROWS
 E  R09
 E  R10
 L  X05
 L  X21
 E  R12
 E  R13
 L  X17
 L  X18
 L  X19
 L  X20
 E  R19
 E  R20
 L  X27
 L  X44
 E  R22
 E  R23
 L  X40
 L  X41
 L  X42
 L  X43
 L  X45
 L  X46
 L  X47
 L  X48
 L  X49
 L  X50
 L  X51
 N  COST
COLUMNS
    X01  X48  371.627070402
    X01  R09  -0.00291443212216
    X01  R10  -566.975992235
    X01  X05  1.12878128734e-07
    X02  X21  -20.4935629894
    X02  R09  0.000117404191385
    X02  COST  -3.38753738367e-05
    X03  X46  -1009.27625173
    X03  R09  603899.200985
    X04  X50  776.787656561
    X04  R10  396631.664479
    X06  X49  2.5635404185
    X06  R12  -1.3563281448e-07
    X06  R13  -3.13047761462e-06
    X06  X17  0.210289929541
    X07  X49  3290847.27789
    X07  R12  -0.167438178405
    X07  R13  -3.86456235786
    X07  X18  2.46755421207
    X08  X49  226792158.071
    X08  R12  -11.5391759682
    X08  R13  -241.20482597
    X08  X19  8228.51801293
    X09  X49  2565331.75241
    X09  R12  -0.125319033487
    X09  R13  -2.34668853502
    X09  X20  4.86126136581e-05
    X10  X45  242994252.406
    X10  X17  -870970776.251
    X11  X45  0.00719715789988
    X11  X18  -2.42942869267e-07
    X12  X45  5359.24625654
    X12  X19  -8.67352053816
    X13  X45  797.690061177
    X13  X20  -6.96209513573e-07
    X14  X21  1.89721413266
    X14  R12  3.09152223161e-08
    X14  COST  -1.79202856528e-06
    X15  X47  -32.9784107469
    X15  R12  0.274104050841
    X16  X51  53249.5973693
    X16  R13  2048.85606387
    X22  X46  0.00329324325515
    X22  R19  -14369.7602193
    X22  R20  -16.087198902
    X22  X27  0.118051854868
    X23  X44  -3.82220357169
    X23  R19  1.45655429089
    X23  COST  -0.000793086620334
    X24  X48  -7037601151
    X24  R19  13204913.3725
    X25  X45  -1313.187227
    X25  R19  1432.54371083
    X26  X50  673.20278333
    X26  R20  3.87602323897
    X28  X47  78.719202122
    X28  R22  -2.03314755944
    X28  R23  300.84109877
    X28  X40  0.044143103117
    X29  X47  4.27346231054e-06
    X29  R22  -1.11396318058e-07
    X29  R23  1.64831079614e-05
    X29  X41  4.09656892971e-06
    X30  X47  491.174801263
    X30  R22  -11.6124321093
    X30  R23  1894.50302561
    X30  X42  1.8922718013
    X31  X47  11.2491146451
    X31  R22  -0.254672790868
    X31  R23  43.7942956392
    X31  X43  0.222434914521
    X32  X45  6168530.94536
    X32  X40  -0.113152372827
    X33  X45  0.44661004005
    X33  X41  -1.37009583344e-05
    X34  X45  9654626.12957
    X34  X42  -1.17444537433
    X35  X45  0.45499592746
    X35  X43  -2.77745606615e-07
    X36  X44  0.0385393055907
    X36  R23  -2.63394123984e-06
    X36  COST  -4.56954170885e-06
    X37  X49  -6347606780.92
    X37  R23  5066.38705322
    X38  X51  67627.6382209
    X38  R22  94.1325677693
    X39  R23  9128.92902921
    X39  COST  329947.739256
RHS
    RHS  X50  154468.874834
    RHS  X51  937.224258983
    RHS  X05  0.00429541707925
    RHS  X17  684732.769952
    RHS  X27  4.52637573888
    RHS  R23  12.1738332922
    RHS  X40  0.0202988003145
ENDATA
